 &control
    calculation = 'scf'
    restart_mode='from_scratch',
    prefix='Al_paw',
    pseudo_dir = './'
 /
 &system
    ibrav   =  0, 
    A       = 4.046, 
    nat     = 2, 
    ntyp    = 1,
    ecutwfc = 70,
    ecutrho = 400
    occupations='smearing'
    smearing = 'gaussian'
    degauss = 0.01
 /
 &electrons
    diagonalization='david'
    mixing_mode = 'plain'
    mixing_beta = 0.7
    conv_thr =  1.0d-9
    electron_maxstep = 100
 /

ATOMIC_SPECIES
 Al   26.00   Al.pbe-n-kjpaw_psl.0.1.UPF

K_POINTS (automatic)
 8 8 8 0 0 0 

CELL_PARAMETERS (alat)
0.5 0.5 0.0
0.5 0.0 0.5
0.0 1.0 1.0

ATOMIC_POSITIONS (crystal)
Al 0.0 0.0 0.0
Al 0.0 0.0 0.5



