 &control
    calculation = 'scf'
    restart_mode='from_scratch',
    prefix='Al_1_0'
    pseudo_dir = './'
 /
 &system
    ibrav   =  0, 
    A       = 4.046, 
    nat     = 2, 
    ntyp    = 1,
    ecutwfc = 70,
    ecutrho = 400
    occupations='smearing'
    smearing = 'gaussian'
    degauss = 0.01
    fde_print_density = .true.
 /
 &electrons
    diagonalization='david'
    mixing_mode = 'plain'
    mixing_beta = 0.7
    conv_thr =  1.0d-9
    electron_maxstep = 100
 /

ATOMIC_SPECIES
 Al   26.00   Al.pbe-rrkj.UPF

K_POINTS (automatic)
 8 8 8 0 0 0 

CELL_PARAMETERS (angstrom)
  -2.49827353498398        2.49827382036933       0.640884960536362     
   2.49827363175491       -2.49827372359840       0.640884960536362     
   2.49827391221282        2.49827372359840      -0.640884960536362     

ATOMIC_POSITIONS (alat)
Al  0.201658655489322       0.201658655489322       0.000000000000000E+000
Al  0.951658655489322       0.451658655489322       0.500000000000000     



