 &control
    calculation = 'scf'
    restart_mode='from_scratch',
    prefix='Al_15_0'
    pseudo_dir = './'
 /
 &system
    ibrav   =  0, 
    A       = 4.046, 
    nat     = 2, 
    ntyp    = 1,
    ecutwfc = 70,
    ecutrho = 400
    occupations='smearing'
    smearing = 'gaussian'
    degauss = 0.01
    fde_print_density = .true.
 /
 &electrons
    diagonalization='david'
    mixing_mode = 'plain'
    mixing_beta = 0.7
    conv_thr =  1.0d-9
    electron_maxstep = 100
 /

ATOMIC_SPECIES
 Al   26.00   Al.pbe-rrkj.UPF

K_POINTS (automatic)
 8 8 8 0 0 0 

CELL_PARAMETERS (angstrom)
   2.06694199027645       0.000000000000000E+000  0.000000000000000E+000
  1.560497787553336E-007   2.06694199027644       0.000000000000000E+000
  2.827472319061992E-007  2.827472105593779E-007   3.74510063982630     

ATOMIC_POSITIONS (alat)
Al  0.250000000000000       0.250000000000000       0.191593159123053     
Al  0.750000000000000       0.750000000000000       0.808406840876947     



