 &control
    calculation = 'scf'
    restart_mode='from_scratch',
    prefix='Al_20_0'
    pseudo_dir = './'
 /
 &system
    ibrav   =  0, 
    nat     = 2, 
    ntyp    = 1,
    ecutwfc = 70,
    ecutrho = 400
    occupations='smearing'
    smearing = 'gaussian'
    degauss = 0.01
    fde_print_density = .true.
 /
 &electrons
    diagonalization='david'
    mixing_mode = 'plain'
    mixing_beta = 0.7
    conv_thr =  1.0d-9
    electron_maxstep = 100
 /

ATOMIC_SPECIES
 Al   26.00   Al_local.UPF

K_POINTS (automatic)
 8 8 8 0 0 0 

CELL_PARAMETERS (angstrom)
   2.05849034386541        1.69864909649370       0.000000000000000E+000
  -2.05849008737653        1.69864909649370       0.000000000000000E+000
  1.727318542690791E-007  1.727318412281874E-007   2.28790278009200     

ATOMIC_POSITIONS (alat)
Al  0.500000000000000       0.000000000000000E+000  0.343388611538350     
Al  0.000000000000000E+000  0.500000000000000       0.843388611538350     



