 &control
    calculation = 'scf'
    restart_mode='from_scratch',
    prefix='Al_29_0'
    pseudo_dir = './'
 /
 &system
    ibrav   =  0, 
    nat     = 2, 
    ntyp    = 1,
    ecutwfc = 70,
    ecutrho = 400
    occupations='smearing'
    smearing = 'gaussian'
    degauss = 0.01
    fde_print_density = .true.
    fde_print_allpot = .true. 
/
 &electrons
    diagonalization='david'
    mixing_mode = 'plain'
    mixing_beta = 0.7
    conv_thr =  1.0d-9
    electron_maxstep = 100
 /

ATOMIC_SPECIES
 Al   26.00   Al_local.UPF

K_POINTS (automatic)
 8 8 8 0 0 0 

CELL_PARAMETERS (angstrom)
   1.80988741312215       0.000000000000000E+000  0.000000000000000E+000
  1.366426981107482E-007   1.80988741312214       0.000000000000000E+000
  3.687667879363659E-007  3.687667600952491E-007   4.88446420548988     

ATOMIC_POSITIONS (alat)
Al  0.000000000000000E+000  0.000000000000000E+000  0.789034910531698     
Al  0.500000000000000       0.500000000000000       0.176206836000821     



