 &control
    calculation = 'scf'
    restart_mode='from_scratch',
    prefix='Al_27_0'
    pseudo_dir = './'
 /
 &system
    ibrav   =  0, 
    nat     = 2, 
    ntyp    = 1,
    ecutwfc = 70,
    ecutrho = 400
    occupations='smearing'
    smearing = 'gaussian'
    degauss = 0.01
    fde_print_density = .true.
 /
 &electrons
    diagonalization='david'
    mixing_mode = 'plain'
    mixing_beta = 0.7
    conv_thr =  1.0d-9
    electron_maxstep = 100
 /

ATOMIC_SPECIES
 Al   26.00   Al_local.UPF

K_POINTS (automatic)
 8 8 8 0 0 0 

CELL_PARAMETERS (angstrom)
   1.35271511804522       0.000000000000000E+000  0.000000000000000E+000
  3.289239873611710E-007   4.35673031072930       0.000000000000000E+000
  2.049688627427610E-007  2.049688472680430E-007   2.71489490392975     

ATOMIC_POSITIONS (alat)
Al  0.000000000000000E+000  0.500000000000000       0.854797232271061     
Al  0.500000000000000       0.000000000000000E+000  0.854797232271061     



