 &control
    calculation = 'scf'
    restart_mode='from_scratch',
    prefix='Al_28_0'
    pseudo_dir = './'
 /
 &system
    ibrav   =  0, 
    nat     = 2, 
    ntyp    = 1,
    ecutwfc = 70,
    ecutrho = 400
    occupations='smearing'
    smearing = 'gaussian'
    degauss = 0.01
    fde_print_density = .true.
 /
 &electrons
    diagonalization='david'
    mixing_mode = 'plain'
    mixing_beta = 0.7
    conv_thr =  1.0d-9
    electron_maxstep = 100
 /

ATOMIC_SPECIES
 Al   26.00   Al_local.UPF

K_POINTS (automatic)
 8 8 8 0 0 0 

CELL_PARAMETERS (angstrom)
  3.587830767477146E-007   2.60294140679302        2.14928469674272     
   1.42998602583279       1.622664678859331E-007   2.14928469674272     
   1.42998606008291        2.60294124452655       0.000000000000000E+000

ATOMIC_POSITIONS (alat)
Al  0.478420663935018       0.478420663935018       0.521579336064982     
Al  0.728420663935018       0.728420663935018       0.771579336064982     



