 &control
    calculation = 'scf'
    restart_mode='from_scratch',
    prefix='Al_2_0'
    pseudo_dir = './'
 /
 &system
    ibrav   =  0, 
    nat     = 2, 
    ntyp    = 1,
    ecutwfc = 70,
    ecutrho = 400
    occupations='smearing'
    smearing = 'gaussian'
    degauss = 0.01
    fde_print_density = .true.
    fde_print_allpot = .true. 
/
 &electrons
    diagonalization='david'
    mixing_mode = 'plain'
    mixing_beta = 0.7
    conv_thr =  1.0d-9
    electron_maxstep = 100
 /

ATOMIC_SPECIES
 Al   26.00   Al_local.UPF

K_POINTS (automatic)
 8 8 8 0 0 0 

CELL_PARAMETERS (angstrom)
   2.50593708973814       0.663876168608958       0.000000000000000E+000
  -2.50593698949562       0.663876168608958       0.000000000000000E+000
  3.630510479316564E-007  3.630510205220659E-007   4.80875693364709     

ATOMIC_POSITIONS (alat)
Al  0.250000000000000       0.250000000000000       0.750000000000000     
Al  0.750000000000000       0.750000000000000       0.250000000000000     



