 &control
    calculation = 'scf'
    restart_mode='from_scratch',
    prefix='Al_24_0'
    pseudo_dir = './'
 /
 &system
    ibrav   =  0, 
    A       = 4.046, 
    nat     = 2, 
    ntyp    = 1,
    ecutwfc = 70,
    ecutrho = 400
    occupations='smearing'
    smearing = 'gaussian'
    degauss = 0.01
    fde_print_density = .true.
 /
 &electrons
    diagonalization='david'
    mixing_mode = 'plain'
    mixing_beta = 0.7
    conv_thr =  1.0d-9
    electron_maxstep = 100
 /

ATOMIC_SPECIES
 Al   26.00   Al.pbe-rrkj.UPF

K_POINTS (automatic)
 8 8 8 0 0 0 

CELL_PARAMETERS (angstrom)
   1.93129862882139       0.000000000000000E+000  0.000000000000000E+000
  1.458089898777216E-007   1.93129862882138       0.000000000000000E+000
  3.238590607405779E-007  3.238590362898999E-007   4.28964332353024     

ATOMIC_POSITIONS (alat)
Al  0.500000000000000       0.500000000000000       0.771461794420262     
Al  0.500000000000000       0.500000000000000       0.228538205579738     



