 &control
    calculation = 'scf'
    restart_mode='from_scratch',
    prefix='Al_37_0'
    pseudo_dir = './'
 /
 &system
    ibrav   =  0, 
    nat     = 2, 
    ntyp    = 1,
    ecutwfc = 70,
    ecutrho = 400
    occupations='smearing'
    smearing = 'gaussian'
    degauss = 0.01
    fde_print_density = .true.
    fde_print_allpot = .true. 
/
 &electrons
    diagonalization='david'
    mixing_mode = 'plain'
    mixing_beta = 0.7
    conv_thr =  1.0d-9
    electron_maxstep = 100
 /

ATOMIC_SPECIES
 Al   26.00   Al_local.UPF

K_POINTS (automatic)
 8 8 8 0 0 0 

CELL_PARAMETERS (angstrom)
   2.47964556752218       0.000000000000000E+000  0.000000000000000E+000
  1.872080319737109E-007   2.47964556752217       0.000000000000000E+000
  1.964607018915358E-007  1.964606870591660E-007   2.60220089651949     

ATOMIC_POSITIONS (alat)
Al  0.000000000000000E+000  0.500000000000000       0.912490362563020     
Al  0.500000000000000       0.000000000000000E+000  0.412490362563020     



