 &control
    calculation = 'scf'
    restart_mode='from_scratch',
    prefix='Al_32_0'
    pseudo_dir = './'
 /
 &system
    ibrav   =  0, 
    nat     = 2, 
    ntyp    = 1,
    ecutwfc = 70,
    ecutrho = 400
    occupations='smearing'
    smearing = 'gaussian'
    degauss = 0.01
    fde_print_density = .true.
 /
 &electrons
    diagonalization='david'
    mixing_mode = 'plain'
    mixing_beta = 0.7
    conv_thr =  1.0d-9
    electron_maxstep = 100
 /

ATOMIC_SPECIES
 Al   26.00   Al_local.UPF

K_POINTS (automatic)
 8 8 8 0 0 0 

CELL_PARAMETERS (angstrom)
 -0.937373782008907       0.937374540161993        4.55233414739063     
  0.937374469392239      -0.937373852778713        4.55233414739063     
  0.937373923548473       0.937373852778713       -4.55233414739063     

ATOMIC_POSITIONS (alat)
Al  0.751836735245827       0.751836735245827       0.000000000000000E+000
Al  0.501836735245827       1.836735245827281E-003  0.500000000000000     



