 &control
    calculation = 'scf'
    restart_mode='from_scratch',
    prefix='Al_35_0'
    pseudo_dir = './'
 /
 &system
    ibrav   =  0, 
    nat     = 2, 
    ntyp    = 1,
    ecutwfc = 70,
    ecutrho = 400
    occupations='smearing'
    smearing = 'gaussian'
    degauss = 0.01
    fde_print_density = .true.
 /
 &electrons
    diagonalization='david'
    mixing_mode = 'plain'
    mixing_beta = 0.7
    conv_thr =  1.0d-9
    electron_maxstep = 100
 /

ATOMIC_SPECIES
 Al   26.00   Al_local.UPF

K_POINTS (automatic)
 8 8 8 0 0 0 

CELL_PARAMETERS (angstrom)
   1.95629234777913       0.000000000000000E+000  0.000000000000000E+000
 -0.978146109093181        1.69419890781603       0.000000000000000E+000
  3.644658086434636E-007  6.312732703134148E-007   4.82749600745256     

ATOMIC_POSITIONS (alat)
Al  0.000000000000000E+000  0.000000000000000E+000  0.400256416304872     
Al  0.000000000000000E+000  0.000000000000000E+000  0.900256416304872     



