 &control
    calculation = 'scf'
    restart_mode='from_scratch',
    prefix='Al_30_0'
    pseudo_dir = './'
 /
 &system
    ibrav   =  0, 
    nat     = 2, 
    ntyp    = 1,
    ecutwfc = 70,
    ecutrho = 400
    occupations='smearing'
    smearing = 'gaussian'
    degauss = 0.01
    fde_print_density = .true.
 /
 &electrons
    diagonalization='david'
    mixing_mode = 'plain'
    mixing_beta = 0.7
    conv_thr =  1.0d-9
    electron_maxstep = 100
 /

ATOMIC_SPECIES
 Al   26.00   Al_local.UPF

K_POINTS (automatic)
 8 8 8 0 0 0 

CELL_PARAMETERS (angstrom)
   1.90530574914625       0.000000000000000E+000  0.000000000000000E+000
  2.273930574715743E-007   3.01191236882338       0.000000000000000E+000
  2.104979632194917E-007  2.104979473273382E-007   2.78813006026874     

ATOMIC_POSITIONS (alat)
Al  0.250000000000000       0.750000000000000       0.352946460712910     
Al  0.750000000000000       0.250000000000000       0.647053539287090     



