 &control
    calculation = 'scf'
    restart_mode='from_scratch',
    prefix='Al_34_0'
    pseudo_dir = './'
 /
 &system
    ibrav   =  0, 
    nat     = 2, 
    ntyp    = 1,
    ecutwfc = 70,
    ecutrho = 400
    occupations='smearing'
    smearing = 'gaussian'
    degauss = 0.01
    fde_print_density = .true.
 /
 &electrons
    diagonalization='david'
    mixing_mode = 'plain'
    mixing_beta = 0.7
    conv_thr =  1.0d-9
    electron_maxstep = 100
 /

ATOMIC_SPECIES
 Al   26.00   Al_local.UPF

K_POINTS (automatic)
 8 8 8 0 0 0 

CELL_PARAMETERS (angstrom)
   2.14739985773255       0.000000000000000E+000  0.000000000000000E+000
  -1.07369985774002        1.85970286994424       0.000000000000000E+000
  3.024812390075025E-007  5.239128511599665E-007   4.00648548919572     

ATOMIC_POSITIONS (alat)
Al  0.000000000000000E+000  0.000000000000000E+000  0.252682075127016     
Al  0.666700005531311       0.333299994468689       0.755223122515698     



