 &control
    calculation = 'scf'
    restart_mode='from_scratch',
    prefix='Al_45_0'
    pseudo_dir = './'
 /
 &system
    ibrav   =  0, 
    A       = 4.046, 
    nat     = 2, 
    ntyp    = 1,
    ecutwfc = 70,
    ecutrho = 400
    occupations='smearing'
    smearing = 'gaussian'
    degauss = 0.01
    fde_print_density = .true.
 /
 &electrons
    diagonalization='david'
    mixing_mode = 'plain'
    mixing_beta = 0.7
    conv_thr =  1.0d-9
    electron_maxstep = 100
 /

ATOMIC_SPECIES
 Al   26.00   Al.pbe-rrkj.UPF

K_POINTS (automatic)
 8 8 8 0 0 0 

CELL_PARAMETERS (angstrom)
   3.59511899757778       0.000000000000000E+000  0.000000000000000E+000
  2.714239329455364E-007   3.59511899757777       0.000000000000000E+000
  9.346055701881561E-008  9.346054996274012E-008   1.23792261211529     

ATOMIC_POSITIONS (alat)
Al  0.000000000000000E+000  0.000000000000000E+000  0.500000000000000     
Al  0.500000000000000       0.500000000000000       0.500000000000000     



