 &control
    calculation = 'scf'
    restart_mode='from_scratch',
    prefix='Al_4_0'
    pseudo_dir = './'
 /
 &system
    ibrav   =  0, 
    nat     = 2, 
    ntyp    = 1,
    ecutwfc = 70,
    ecutrho = 400
    occupations='smearing'
    smearing = 'gaussian'
    degauss = 0.01
    fde_print_density = .true.
 /
 &electrons
    diagonalization='david'
    mixing_mode = 'plain'
    mixing_beta = 0.7
    conv_thr =  1.0d-9
    electron_maxstep = 100
 /

ATOMIC_SPECIES
 Al   26.00   Al_local.UPF

K_POINTS (automatic)
 8 8 8 0 0 0 

CELL_PARAMETERS (angstrom)
   1.70304901985489       0.000000000000000E+000  0.000000000000000E+000
  1.285766238278888E-007   1.70304901985488       0.000000000000000E+000
  4.164862117132460E-007  4.164861802694129E-007   5.51652713786272     

ATOMIC_POSITIONS (alat)
Al  0.500000000000000       0.500000000000000       0.914584051696416     
Al  0.500000000000000       0.500000000000000       0.414584051696416     



