 &control
    calculation = 'scf'
    restart_mode='from_scratch',
    prefix='Al_56_0'
    pseudo_dir = './'
 /
 &system
    ibrav   =  0, 
    nat     = 2, 
    ntyp    = 1,
    ecutwfc = 70,
    ecutrho = 400
    occupations='smearing'
    smearing = 'gaussian'
    degauss = 0.01
    fde_print_density = .true.
    fde_print_allpot = .true. 
/
 &electrons
    diagonalization='david'
    mixing_mode = 'plain'
    mixing_beta = 0.7
    conv_thr =  1.0d-9
    electron_maxstep = 100
 /

ATOMIC_SPECIES
 Al   26.00   Al_local.UPF

K_POINTS (automatic)
 8 8 8 0 0 0 

CELL_PARAMETERS (angstrom)
   1.92964182622604       0.000000000000000E+000  0.000000000000000E+000
  1.456839047618053E-007   1.92964182622603       0.000000000000000E+000
  3.244154554260772E-007  3.244154309333926E-007   4.29701299459160     

ATOMIC_POSITIONS (alat)
Al  0.000000000000000E+000  0.500000000000000       0.500000000000000     
Al  0.500000000000000       0.000000000000000E+000  0.000000000000000E+000



