 &control
    calculation = 'scf'
    restart_mode='from_scratch',
    prefix='Al_53_0'
    pseudo_dir = './'
 /
 &system
    ibrav   =  0, 
    nat     = 2, 
    ntyp    = 1,
    ecutwfc = 70,
    ecutrho = 400
    occupations='smearing'
    smearing = 'gaussian'
    degauss = 0.01
    fde_print_density = .true.
    fde_print_allpot = .true. 
/
 &electrons
    diagonalization='david'
    mixing_mode = 'plain'
    mixing_beta = 0.7
    conv_thr =  1.0d-9
    electron_maxstep = 100
 /

ATOMIC_SPECIES
 Al   26.00   Al_local.UPF

K_POINTS (automatic)
 8 8 8 0 0 0 

CELL_PARAMETERS (angstrom)
   3.38715180122069       0.000000000000000E+000  0.000000000000000E+000
  -1.69357578842099        2.93335957110389       0.000000000000000E+000
  1.215779903850938E-007  2.105792471293521E-007   1.61034930920583     

ATOMIC_POSITIONS (alat)
Al  0.000000000000000E+000  0.000000000000000E+000  0.302564004770452     
Al  0.333299994468689       0.666700005531311       0.480609011301661     



