 &control
    calculation = 'scf'
    restart_mode='from_scratch',
    prefix='Al_57_0'
    pseudo_dir = './'
 /
 &system
    ibrav   =  0, 
    nat     = 2, 
    ntyp    = 1,
    ecutwfc = 70,
    ecutrho = 400
    occupations='smearing'
    smearing = 'gaussian'
    degauss = 0.01
    fde_print_density = .true.
 /
 &electrons
    diagonalization='david'
    mixing_mode = 'plain'
    mixing_beta = 0.7
    conv_thr =  1.0d-9
    electron_maxstep = 100
 /

ATOMIC_SPECIES
 Al   26.00   Al_local.UPF

K_POINTS (automatic)
 8 8 8 0 0 0 

CELL_PARAMETERS (angstrom)
   5.16976753623457       0.000000000000000E+000  0.000000000000000E+000
  1.234541045142707E-007   1.63519919430710       0.000000000000000E+000
  1.428937513126670E-007  1.428937405244893E-007   1.89268512324741     

ATOMIC_POSITIONS (alat)
Al  0.245701925309683       0.500000000000000       0.000000000000000E+000
Al  0.754298074690317       0.500000000000000       0.000000000000000E+000



