 &control
    calculation = 'scf'
    restart_mode='from_scratch',
    prefix='Al_67_0'
    pseudo_dir = './'
 /
 &system
    ibrav   =  0, 
    nat     = 2, 
    ntyp    = 1,
    ecutwfc = 70,
    ecutrho = 400
    occupations='smearing'
    smearing = 'gaussian'
    degauss = 0.01
    fde_print_density = .true.
    fde_print_allpot = .true. 
/
 &electrons
    diagonalization='david'
    mixing_mode = 'plain'
    mixing_beta = 0.7
    conv_thr =  1.0d-9
    electron_maxstep = 100
 /

ATOMIC_SPECIES
 Al   26.00   Al_local.UPF

K_POINTS (automatic)
 8 8 8 0 0 0 

CELL_PARAMETERS (angstrom)
   2.04555257479371       0.000000000000000E+000  0.000000000000000E+000
  2.643169070661386E-007   3.50098358557478       0.000000000000000E+000
  1.686763454665907E-007  1.686763327318814E-007   2.23418593728288     

ATOMIC_POSITIONS (alat)
Al  0.500000000000000       0.000000000000000E+000  0.404393162286569     
Al  0.500000000000000       0.500000000000000       0.904393162286569     



