 &control
    calculation = 'scf'
    restart_mode='from_scratch',
    prefix='Al_65_0'
    pseudo_dir = './'
 /
 &system
    ibrav   =  0, 
    A       = 4.046, 
    nat     = 2, 
    ntyp    = 1,
    ecutwfc = 70,
    ecutrho = 400
    occupations='smearing'
    smearing = 'gaussian'
    degauss = 0.01
    fde_print_density = .true.
 /
 &electrons
    diagonalization='david'
    mixing_mode = 'plain'
    mixing_beta = 0.7
    conv_thr =  1.0d-9
    electron_maxstep = 100
 /

ATOMIC_SPECIES
 Al   26.00   Al.pbe-rrkj.UPF

K_POINTS (automatic)
 8 8 8 0 0 0 

CELL_PARAMETERS (angstrom)
   1.95439144852471       0.000000000000000E+000  0.000000000000000E+000
  1.475524492599841E-007   1.95439144852470       0.000000000000000E+000
  3.162509329726775E-007  3.162509090963971E-007   4.18887061576808     

ATOMIC_POSITIONS (alat)
Al  0.000000000000000E+000  0.000000000000000E+000  0.608880921618489     
Al  0.500000000000000       0.500000000000000       0.949769577351590     



