 &control
    calculation = 'scf'
    restart_mode='from_scratch',
    prefix='Al_64_0'
    pseudo_dir = './'
 /
 &system
    ibrav   =  0, 
    nat     = 2, 
    ntyp    = 1,
    ecutwfc = 70,
    ecutrho = 400
    occupations='smearing'
    smearing = 'gaussian'
    degauss = 0.01
    fde_print_density = .true.
 /
 &electrons
    diagonalization='david'
    mixing_mode = 'plain'
    mixing_beta = 0.7
    conv_thr =  1.0d-9
    electron_maxstep = 100
 /

ATOMIC_SPECIES
 Al   26.00   Al_local.UPF

K_POINTS (automatic)
 8 8 8 0 0 0 

CELL_PARAMETERS (angstrom)
  2.535026442349615E-007   1.23986900261569        2.11787548857312     
  6.628765755186078E-008  -1.23986868282541        2.11787548857312     
   3.04658903395471       0.000000000000000E+000  0.000000000000000E+000

ATOMIC_POSITIONS (alat)
Al  0.520160651399592       0.520160651399592       0.000000000000000E+000
Al  2.016065139959244E-002  2.016065139959244E-002  0.500000000000000     



