 &control
    calculation = 'scf'
    restart_mode='from_scratch',
    prefix='Al_61_0'
    pseudo_dir = './'
 /
 &system
    ibrav   =  0, 
    A       = 4.046, 
    nat     = 2, 
    ntyp    = 1,
    ecutwfc = 70,
    ecutrho = 400
    occupations='smearing'
    smearing = 'gaussian'
    degauss = 0.01
    fde_print_density = .true.
 /
 &electrons
    diagonalization='david'
    mixing_mode = 'plain'
    mixing_beta = 0.7
    conv_thr =  1.0d-9
    electron_maxstep = 100
 /

ATOMIC_SPECIES
 Al   26.00   Al.pbe-rrkj.UPF

K_POINTS (automatic)
 8 8 8 0 0 0 

CELL_PARAMETERS (angstrom)
   1.10779361050443       0.000000000000000E+000  0.000000000000000E+000
  3.275714911816275E-007   4.33881595565950       0.000000000000000E+000
   1.38028581329875       1.678584924115330E-007   3.32881732995232     

ATOMIC_POSITIONS (alat)
Al  0.000000000000000E+000  0.967756221657281       0.500000000000000     
Al  0.000000000000000E+000  0.406163631716700       0.500000000000000     



