 &control
    calculation = 'scf'
    restart_mode='from_scratch',
    prefix='Al_63_0'
    pseudo_dir = './'
 /
 &system
    ibrav   =  0, 
    nat     = 2, 
    ntyp    = 1,
    ecutwfc = 70,
    ecutrho = 400
    occupations='smearing'
    smearing = 'gaussian'
    degauss = 0.01
    fde_print_density = .true.
    fde_print_allpot = .true. 
/
 &electrons
    diagonalization='david'
    mixing_mode = 'plain'
    mixing_beta = 0.7
    conv_thr =  1.0d-9
    electron_maxstep = 100
 /

ATOMIC_SPECIES
 Al   26.00   Al_local.UPF

K_POINTS (automatic)
 8 8 8 0 0 0 

CELL_PARAMETERS (angstrom)
   1.39118176624703       0.000000000000000E+000  0.000000000000000E+000
  3.716676298529722E-007   4.92288702167336       0.000000000000000E+000
   1.48140592395853       9.700866768325888E-008   2.33623388407357     

ATOMIC_POSITIONS (alat)
Al  0.000000000000000E+000  0.819203142836813       0.250000000000000     
Al  0.000000000000000E+000  0.180796857163187       0.750000000000000     



