 &control
    calculation = 'scf'
    restart_mode='from_scratch',
    prefix='Al_60_0'
    pseudo_dir = './'
 /
 &system
    ibrav   =  0, 
    A       = 4.046, 
    nat     = 2, 
    ntyp    = 1,
    ecutwfc = 70,
    ecutrho = 400
    occupations='smearing'
    smearing = 'gaussian'
    degauss = 0.01
    fde_print_density = .true.
 /
 &electrons
    diagonalization='david'
    mixing_mode = 'plain'
    mixing_beta = 0.7
    conv_thr =  1.0d-9
    electron_maxstep = 100
 /

ATOMIC_SPECIES
 Al   26.00   Al.pbe-rrkj.UPF

K_POINTS (automatic)
 8 8 8 0 0 0 

CELL_PARAMETERS (angstrom)
   1.68473350595213       0.000000000000000E+000  0.000000000000000E+000
  1.271938409990713E-007   1.68473350595212       0.000000000000000E+000
  4.255910871845260E-007  4.255910550532942E-007   5.63712487006029     

ATOMIC_POSITIONS (alat)
Al  0.000000000000000E+000  0.500000000000000       0.355668982598866     
Al  0.500000000000000       0.000000000000000E+000  0.644331017401134     



