 &control
    calculation = 'scf'
    restart_mode='from_scratch',
    prefix='Al_71_0'
    pseudo_dir = './'
 /
 &system
    ibrav   =  0, 
    A       = 4.046, 
    nat     = 2, 
    ntyp    = 1,
    ecutwfc = 70,
    ecutrho = 400
    occupations='smearing'
    smearing = 'gaussian'
    degauss = 0.01
    fde_print_density = .true.
 /
 &electrons
    diagonalization='david'
    mixing_mode = 'plain'
    mixing_beta = 0.7
    conv_thr =  1.0d-9
    electron_maxstep = 100
 /

ATOMIC_SPECIES
 Al   26.00   Al.pbe-rrkj.UPF

K_POINTS (automatic)
 8 8 8 0 0 0 

CELL_PARAMETERS (angstrom)
   1.31331879944709        1.24133617088032       0.000000000000000E+000
  -1.31331861201054        1.24133617088032       0.000000000000000E+000
  3.704805267237736E-007  3.704804987532731E-007   4.90716336397835     

ATOMIC_POSITIONS (alat)
Al  0.250000000000000       0.250000000000000       0.256609566422092     
Al  0.750000000000000       0.750000000000000       0.743390433577908     



