 &control
    calculation = 'scf'
    restart_mode='from_scratch',
    prefix='Al_76_0'
    pseudo_dir = './'
 /
 &system
    ibrav   =  0, 
    nat     = 2, 
    ntyp    = 1,
    ecutwfc = 70,
    ecutrho = 400
    occupations='smearing'
    smearing = 'gaussian'
    degauss = 0.01
    fde_print_density = .true.
    fde_print_allpot = .true. 
/
 &electrons
    diagonalization='david'
    mixing_mode = 'plain'
    mixing_beta = 0.7
    conv_thr =  1.0d-9
    electron_maxstep = 100
 /

ATOMIC_SPECIES
 Al   26.00   Al_local.UPF

K_POINTS (automatic)
 8 8 8 0 0 0 

CELL_PARAMETERS (angstrom)
   3.53598540476852       0.000000000000000E+000  0.000000000000000E+000
   2.73405975279895        2.24234476627948       0.000000000000000E+000
   2.73405975279895       0.977776782035578        2.01793523567361     

ATOMIC_POSITIONS (alat)
Al  0.900434391823094       0.900434391823094       0.900434391823094     
Al  9.956560817690596E-002  9.956560817690596E-002  9.956560817690596E-002



