 &control
    calculation = 'scf'
    restart_mode='from_scratch',
    prefix='Al_88_0'
    pseudo_dir = './'
 /
 &system
    ibrav   =  0, 
    nat     = 2, 
    ntyp    = 1,
    ecutwfc = 70,
    ecutrho = 400
    occupations='smearing'
    smearing = 'gaussian'
    degauss = 0.01
    fde_print_density = .true.
 /
 &electrons
    diagonalization='david'
    mixing_mode = 'plain'
    mixing_beta = 0.7
    conv_thr =  1.0d-9
    electron_maxstep = 100
 /

ATOMIC_SPECIES
 Al   26.00   Al_local.UPF

K_POINTS (automatic)
 8 8 8 0 0 0 

CELL_PARAMETERS (angstrom)
   2.29547441850688       0.000000000000000E+000  0.000000000000000E+000
  1.733034970655451E-007   2.29547441850687       0.000000000000000E+000
  2.292503433846372E-007  2.292503260767184E-007   3.03651286664066     

ATOMIC_POSITIONS (alat)
Al  0.250000000000000       0.250000000000000       0.171936389810682     
Al  0.750000000000000       0.750000000000000       0.828063610189319     



