 &control
    calculation = 'scf'
    restart_mode='from_scratch',
    prefix='Al_83_0'
    pseudo_dir = './'
 /
 &system
    ibrav   =  0, 
    A       = 4.046, 
    nat     = 2, 
    ntyp    = 1,
    ecutwfc = 70,
    ecutrho = 400
    occupations='smearing'
    smearing = 'gaussian'
    degauss = 0.01
    fde_print_density = .true.
 /
 &electrons
    diagonalization='david'
    mixing_mode = 'plain'
    mixing_beta = 0.7
    conv_thr =  1.0d-9
    electron_maxstep = 100
 /

ATOMIC_SPECIES
 Al   26.00   Al.pbe-rrkj.UPF

K_POINTS (automatic)
 8 8 8 0 0 0 

CELL_PARAMETERS (angstrom)
  -1.88780264150587        1.88780295350835        1.12239774371334     
   1.88780281098321       -1.88780278403102        1.12239774371334     
   1.88780292655617        1.88780278403102       -1.12239774371334     

ATOMIC_POSITIONS (alat)
Al  0.500000000000000       0.500000000000000       0.000000000000000E+000
Al  0.250000000000000       0.750000000000000       0.500000000000000     



