 &control
    calculation = 'scf'
    restart_mode='from_scratch',
    prefix='Al_97_0'
    pseudo_dir = './'
 /
 &system
    ibrav   =  0, 
    nat     = 2, 
    ntyp    = 1,
    ecutwfc = 70,
    ecutrho = 400
    occupations='smearing'
    smearing = 'gaussian'
    degauss = 0.01
    fde_print_density = .true.
 /
 &electrons
    diagonalization='david'
    mixing_mode = 'plain'
    mixing_beta = 0.7
    conv_thr =  1.0d-9
    electron_maxstep = 100
 /

ATOMIC_SPECIES
 Al   26.00   Al_local.UPF

K_POINTS (automatic)
 8 8 8 0 0 0 

CELL_PARAMETERS (angstrom)
  4.188487206123827E-007   2.29813086679833        3.24968889557791     
   1.07120764854306       2.453446672805717E-007   3.24968889557791     
   1.07120757670241        2.29813062145366       0.000000000000000E+000

ATOMIC_POSITIONS (alat)
Al  0.861440304304670       0.861440304304670       0.138559695695330     
Al  0.138559695695330       0.138559695695330       0.861440304304670     



