 &control
    calculation = 'scf'
    restart_mode='from_scratch',
    prefix='Al_90_0'
    pseudo_dir = './'
 /
 &system
    ibrav   =  0, 
    nat     = 2, 
    ntyp    = 1,
    ecutwfc = 70,
    ecutrho = 400
    occupations='smearing'
    smearing = 'gaussian'
    degauss = 0.01
    fde_print_density = .true.
    fde_print_allpot = .true. 
/
 &electrons
    diagonalization='david'
    mixing_mode = 'plain'
    mixing_beta = 0.7
    conv_thr =  1.0d-9
    electron_maxstep = 100
 /

ATOMIC_SPECIES
 Al   26.00   Al_local.UPF

K_POINTS (automatic)
 8 8 8 0 0 0 

CELL_PARAMETERS (angstrom)
   1.72072359116123       0.000000000000000E+000  0.000000000000000E+000
  1.299110168369454E-007   1.72072359116123       0.000000000000000E+000
  4.079742149551969E-007  4.079741841540018E-007   5.40378232232604     

ATOMIC_POSITIONS (alat)
Al  0.250000000000000       0.250000000000000       0.140486525810023     
Al  0.750000000000000       0.750000000000000       0.859513474189977     



