 &control
    calculation = 'scf'
    restart_mode='from_scratch',
    prefix='Al_99_0'
    pseudo_dir = './'
 /
 &system
    ibrav   =  0, 
    nat     = 2, 
    ntyp    = 1,
    ecutwfc = 70,
    ecutrho = 400
    occupations='smearing'
    smearing = 'gaussian'
    degauss = 0.01
    fde_print_density = .true.
    fde_print_allpot = .true. 
/
 &electrons
    diagonalization='david'
    mixing_mode = 'plain'
    mixing_beta = 0.7
    conv_thr =  1.0d-9
    electron_maxstep = 100
 /

ATOMIC_SPECIES
 Al   26.00   Al_local.UPF

K_POINTS (automatic)
 8 8 8 0 0 0 

CELL_PARAMETERS (angstrom)
   3.77838608201717       0.000000000000000E+000  0.000000000000000E+000
  2.852602128771649E-007   3.77838608201716       0.000000000000000E+000
  8.461400724140173E-008  8.461400085322214E-008   1.12074650747834     

ATOMIC_POSITIONS (alat)
Al  0.000000000000000E+000  0.500000000000000       0.000000000000000E+000
Al  0.500000000000000       0.000000000000000E+000  0.500000000000000     



