 &control
    calculation = 'scf'
    restart_mode='from_scratch',
    prefix='Al_98_0'
    pseudo_dir = './'
 /
 &system
    ibrav   =  0, 
    nat     = 2, 
    ntyp    = 1,
    ecutwfc = 70,
    ecutrho = 400
    occupations='smearing'
    smearing = 'gaussian'
    degauss = 0.01
    fde_print_density = .true.
 /
 &electrons
    diagonalization='david'
    mixing_mode = 'plain'
    mixing_beta = 0.7
    conv_thr =  1.0d-9
    electron_maxstep = 100
 /

ATOMIC_SPECIES
 Al   26.00   Al_local.UPF

K_POINTS (automatic)
 8 8 8 0 0 0 

CELL_PARAMETERS (angstrom)
   2.72600520501021       0.000000000000000E+000  0.000000000000000E+000
  9.651383563454729E-008   1.27836451359830       0.000000000000000E+000
  3.466358983526549E-007  3.466358721823737E-007   4.59133168503649     

ATOMIC_POSITIONS (alat)
Al  0.000000000000000E+000  0.500000000000000       0.000000000000000E+000
Al  0.000000000000000E+000  0.500000000000000       0.500000000000000     



