 &control
    calculation = 'scf'
    restart_mode='from_scratch',
    prefix='Si',
    pseudo_dir = './'
 /
 &system
    ibrav   =  0, 
    A       = 5.431, 
    nat     = 2, 
    ntyp    = 1,
    ecutwfc = 70,
    ecutrho = 400
    occupations='smearing'
    smearing = 'gaussian'
    degauss = 0.01
    fde_print_density = .true.
 /
 &electrons
    diagonalization='david'
    mixing_mode = 'plain'
    mixing_beta = 0.7
    conv_thr =  1.0d-9
    electron_maxstep = 100
 /

ATOMIC_SPECIES
 Si   26.00   Si.pbe-rrkj.UPF

K_POINTS (automatic)
 8 8 8 0 0 0 

CELL_PARAMETERS (alat)
0.5 0.5 0.0
0.5 0.0 0.5
0.0 0.5 0.5

ATOMIC_POSITIONS (crystal)
Si 0.0 0.0 0.0
Si 0.25 0.25 0.25



