 Al        
1.0
   1.68473350595213       0.000000000000000E+000  0.000000000000000E+000
  1.271938409990713E-007   1.68473350595212       0.000000000000000E+000
  4.255910871845260E-007  4.255910550532942E-007   5.63712487006029     
           2
Direct
  0.000000000000000E+000  0.500000000000000       0.355668982598866     
  0.500000000000000       0.000000000000000E+000  0.644331017401134     
