 Al        
1.0
   5.16976753623457       0.000000000000000E+000  0.000000000000000E+000
  1.234541045142707E-007   1.63519919430710       0.000000000000000E+000
  1.428937513126670E-007  1.428937405244893E-007   1.89268512324741     
           2
Direct
  0.245701925309683       0.500000000000000       0.000000000000000E+000
  0.754298074690317       0.500000000000000       0.000000000000000E+000
