 Al        
1.0
   2.14739985773255       0.000000000000000E+000  0.000000000000000E+000
  -1.07369985774002        1.85970286994424       0.000000000000000E+000
  3.024812390075025E-007  5.239128511599665E-007   4.00648548919572     
           2
Direct
  0.000000000000000E+000  0.000000000000000E+000  0.252682075127016     
  0.666700005531311       0.333299994468689       0.755223122515698     
