 Al        
1.0
   1.80988741312215       0.000000000000000E+000  0.000000000000000E+000
  1.366426981107482E-007   1.80988741312214       0.000000000000000E+000
  3.687667879363659E-007  3.687667600952491E-007   4.88446420548988     
           2
Direct
  0.000000000000000E+000  0.000000000000000E+000  0.789034910531698     
  0.500000000000000       0.500000000000000       0.176206836000821     
