 Al        
1.0
   1.92964182622604       0.000000000000000E+000  0.000000000000000E+000
  1.456839047618053E-007   1.92964182622603       0.000000000000000E+000
  3.244154554260772E-007  3.244154309333926E-007   4.29701299459160     
           2
Direct
  0.000000000000000E+000  0.500000000000000       0.500000000000000     
  0.500000000000000       0.000000000000000E+000  0.000000000000000E+000
