 Al        
1.0
   2.14263355970336       0.000000000000000E+000  0.000000000000000E+000
  1.617643332606267E-007   2.14263355970336       0.000000000000000E+000
  2.631231734252900E-007  2.631231535600438E-007   3.48517210409010     
           2
Direct
  0.000000000000000E+000  0.000000000000000E+000  0.000000000000000E+000
  0.500000000000000       0.500000000000000       0.500000000000000     
