 Al        
1.0
   2.10270523243713       0.000000000000000E+000  0.000000000000000E+000
  1.587498284195242E-007   2.10270523243712       0.000000000000000E+000
  2.732109766387970E-007  2.732109560119429E-007   3.61878910898400     
           2
Direct
  0.500000000000000       0.500000000000000       0.000000000000000E+000
  0.500000000000000       0.500000000000000       0.500000000000000     
