 Al        
1.0
   2.52312575602987       0.000000000000000E+000  0.000000000000000E+000
  1.904906948780326E-007   2.52312575602986       0.000000000000000E+000
  1.897479629437635E-007  1.897479486181914E-007   2.51328797327422     
           2
Direct
  0.250000000000000       0.250000000000000       0.750000000000000     
  0.750000000000000       0.750000000000000       0.250000000000000     
