 Al        
1.0
 -0.937373782008907       0.937374540161993        4.55233414739063     
  0.937374469392239      -0.937373852778713        4.55233414739063     
  0.937373923548473       0.937373852778713       -4.55233414739063     
           2
Direct
  0.751836735245827       0.751836735245827       0.000000000000000E+000
  0.501836735245827       1.836735245827281E-003  0.500000000000000     
