 Al        
1.0
   2.47964556752218       0.000000000000000E+000  0.000000000000000E+000
  1.872080319737109E-007   2.47964556752217       0.000000000000000E+000
  1.964607018915358E-007  1.964606870591660E-007   2.60220089651949     
           2
Direct
  0.000000000000000E+000  0.500000000000000       0.912490362563020     
  0.500000000000000       0.000000000000000E+000  0.412490362563020     
