 Al        
1.0
  2.535026442349615E-007   1.23986900261569        2.11787548857312     
  6.628765755186078E-008  -1.23986868282541        2.11787548857312     
   3.04658903395471       0.000000000000000E+000  0.000000000000000E+000
           2
Direct
  0.520160651399592       0.520160651399592       0.000000000000000E+000
  2.016065139959244E-002  2.016065139959244E-002  0.500000000000000     
