 Al        
1.0
  3.019916142777891E-007   2.00000025750282        2.00000010650702     
   2.00000025750284       1.509957957390287E-007   2.00000010650702     
   2.00000025750284        2.00000010650702       0.000000000000000E+000
           2
Direct
  0.000000000000000E+000  0.000000000000000E+000  0.000000000000000E+000
  0.500000000000000       0.500000000000000       0.500000000000000     
