 Al        
1.0
   3.66631302621465       0.000000000000000E+000  0.000000000000000E+000
  3.268500277002705E-007   4.32925988210424       0.000000000000000E+000
   1.95963441761741       1.842667385484300E-008   1.00803787626817     
           2
Direct
  0.500000000000000       0.000000000000000E+000  0.500000000000000     
  0.500000000000000       0.500000000000000       0.500000000000000     
