 Al        
1.0
   2.06694199027645       0.000000000000000E+000  0.000000000000000E+000
  1.560497787553336E-007   2.06694199027644       0.000000000000000E+000
  2.827472319061992E-007  2.827472105593779E-007   3.74510063982630     
           2
Direct
  0.250000000000000       0.250000000000000       0.191593159123053     
  0.750000000000000       0.750000000000000       0.808406840876947     
