 Al        
1.0
   2.04555257479371       0.000000000000000E+000  0.000000000000000E+000
  2.643169070661386E-007   3.50098358557478       0.000000000000000E+000
  1.686763454665907E-007  1.686763327318814E-007   2.23418593728288     
           2
Direct
  0.500000000000000       0.000000000000000E+000  0.404393162286569     
  0.500000000000000       0.500000000000000       0.904393162286569     
