 Al        
1.0
   2.29547441850688       0.000000000000000E+000  0.000000000000000E+000
  1.733034970655451E-007   2.29547441850687       0.000000000000000E+000
  2.292503433846372E-007  2.292503260767184E-007   3.03651286664066     
           2
Direct
  0.250000000000000       0.250000000000000       0.171936389810682     
  0.750000000000000       0.750000000000000       0.828063610189319     
