 Al        
1.0
   2.62502033936695       0.000000000000000E+000  0.000000000000000E+000
  0.790778616549714        2.50307829715690       0.000000000000000E+000
  0.790778616549714       0.579478130442300        2.43507824474636     
           2
Direct
  0.729629089598763       0.729629089598763       0.729629089598763     
  0.135910480540428       0.135910480540428       0.135910480540428     
