 Al        
1.0
   2.15978067142906       0.000000000000000E+000  0.000000000000000E+000
  1.630589041792474E-007   2.15978067142905       0.000000000000000E+000
  2.589617681513461E-007  2.589617486002774E-007   3.43005261998780     
           2
Direct
  0.000000000000000E+000  0.500000000000000       0.000000000000000E+000
  0.500000000000000       0.000000000000000E+000  0.500000000000000     
