 Al        
1.0
  -2.49827353498398        2.49827382036933       0.640884960536362     
   2.49827363175491       -2.49827372359840       0.640884960536362     
   2.49827391221282        2.49827372359840      -0.640884960536362     
           2
Direct
  0.201658655489322       0.201658655489322       0.000000000000000E+000
  0.951658655489322       0.451658655489322       0.500000000000000     
