 Al        
1.0
   2.00488937167882       0.000000000000000E+000  0.000000000000000E+000
  2.293850523378238E-007   3.03829714082567       0.000000000000000E+000
  1.983052689794657E-007  1.983052540078350E-007   2.62663292838992     
           2
Direct
  0.000000000000000E+000  0.500000000000000       2.929089194616568E-002
  0.500000000000000       0.000000000000000E+000  0.529290891946166     
