 Al        
1.0
   3.80271483989142       0.000000000000000E+000  0.000000000000000E+000
  -1.90135729399206        3.29324772741341       0.000000000000000E+000
  9.645766546136322E-008  1.670695699803173E-007   1.27762051709614     
           2
Direct
  0.333299994468689       0.666700005531311       0.000000000000000E+000
  0.666700005531311       0.333299994468689       0.000000000000000E+000
