 Al        
1.0
   2.66043753704811       0.000000000000000E+000  0.000000000000000E+000
  2.008574459282313E-007   2.66043753704811       0.000000000000000E+000
  1.706667073698665E-007  1.706666944848891E-007   2.26054908003477     
           2
Direct
  0.000000000000000E+000  0.000000000000000E+000  0.500000000000000     
  0.500000000000000       0.500000000000000       0.000000000000000E+000
