 Al        
1.0
   2.12906896937726       0.000000000000000E+000  0.000000000000000E+000
  1.607402351827641E-007   2.12906896937725       0.000000000000000E+000
  2.664866400224727E-007  2.664866199032919E-007   3.52972256996106     
           2
Direct
  0.000000000000000E+000  0.000000000000000E+000  0.720144474046434     
  0.500000000000000       0.500000000000000       0.235120282967213     
