 Al        
1.0
   1.56525048686859       0.000000000000000E+000  0.000000000000000E+000
  1.181731240265011E-007   1.56525048686859       0.000000000000000E+000
  4.930458041451012E-007  4.930457669211801E-007   6.53058968648035     
           2
Direct
  0.500000000000000       0.500000000000000       0.599248536367027     
  0.500000000000000       0.500000000000000       9.924853636702657E-002
