 Al        
1.0
   2.13537402891193       0.000000000000000E+000  0.000000000000000E+000
  -1.06768694372803        1.84928819645405       0.000000000000000E+000
  3.058978038678928E-007  5.298305148241768E-007   4.05173926288748     
           2
Direct
  0.333299994468689       0.666700005531311       0.250000000000000     
  0.666700005531311       0.333299994468689       0.750000000000000     
