 Al        
1.0
   1.39118176624703       0.000000000000000E+000  0.000000000000000E+000
  3.716676298529722E-007   4.92288702167336       0.000000000000000E+000
   1.48140592395853       9.700866768325888E-008   2.33623388407357     
           2
Direct
  0.000000000000000E+000  0.819203142836813       0.250000000000000     
  0.000000000000000E+000  0.180796857163187       0.750000000000000     
