 Al        
1.0
   3.59511899757778       0.000000000000000E+000  0.000000000000000E+000
  2.714239329455364E-007   3.59511899757777       0.000000000000000E+000
  9.346055701881561E-008  9.346054996274012E-008   1.23792261211529     
           2
Direct
  0.000000000000000E+000  0.000000000000000E+000  0.500000000000000     
  0.500000000000000       0.500000000000000       0.500000000000000     
