 Al        
1.0
  3.019916152593183E-007   2.00000026400320        2.00000011300739     
   2.00000026400321       1.509957962297933E-007   2.00000011300739     
   2.00000026400321        2.00000011300740       0.000000000000000E+000
           2
Direct
  0.000000000000000E+000  0.000000000000000E+000  0.000000000000000E+000
  0.500000000000000       0.500000000000000       0.500000000000000     
