 Al        
1.0
   5.09714926020637       0.000000000000000E+000  0.000000000000000E+000
  1.233234319249282E-007   1.63346838338225       0.000000000000000E+000
  1.450831019790142E-007  1.450830910255452E-007   1.92168395208144     
           2
Direct
  0.250000000000000       0.750000000000000       0.250000000000000     
  0.750000000000000       0.250000000000000       0.750000000000000     
