 Al        
1.0
   1.35271511804522       0.000000000000000E+000  0.000000000000000E+000
  3.289239873611710E-007   4.35673031072930       0.000000000000000E+000
  2.049688627427610E-007  2.049688472680430E-007   2.71489490392975     
           2
Direct
  0.000000000000000E+000  0.500000000000000       0.854797232271061     
  0.500000000000000       0.000000000000000E+000  0.854797232271061     
