 Al        
1.0
   1.69382350504411        2.52572335987643       0.000000000000000E+000
  -1.69382312367050        2.52572335987643       0.000000000000000E+000
  1.411793053597556E-007  1.411792947010150E-007   1.86997659806784     
           2
Direct
  0.000000000000000E+000  0.000000000000000E+000  0.000000000000000E+000
  0.500000000000000       0.500000000000000       0.500000000000000     
