 Al        
1.0
   1.63464661332891       0.000000000000000E+000  0.000000000000000E+000
  1.234123858110860E-007   1.63464661332890       0.000000000000000E+000
  4.520715831181168E-007  4.520715489876631E-007   5.98786967344959     
           2
Direct
  0.500000000000000       0.500000000000000       0.478532983770269     
  0.500000000000000       0.500000000000000       0.978532983770269     
