 Al        
1.0
   1.30596861344140        1.56776797890065       0.000000000000000E+000
  -1.30596837671502        1.56776797890065       0.000000000000000E+000
  2.949921227758374E-007  2.949921005045526E-007   3.90728913702687     
           2
Direct
  0.250000000000000       0.250000000000000       0.750000000000000     
  0.750000000000000       0.750000000000000       0.250000000000000     
