 Al        
1.0
   1.74373224473728       0.000000000000000E+000  0.000000000000000E+000
  1.858692329463976E-007   2.46191263673453       0.000000000000000E+000
  2.813859892219332E-007  2.813859679778829E-007   3.72707043378880     
           2
Direct
  0.000000000000000E+000  0.500000000000000       0.000000000000000E+000
  0.000000000000000E+000  0.500000000000000       0.500000000000000     
