 Al        
1.0
  -1.95955658905355        1.95955689428889        1.04170400876630     
   1.95955674634648       -1.95955673699597        1.04170400876630     
   1.95955688493840        1.95955673699597       -1.04170400876630     
           2
Direct
  0.875000000000000       0.625000000000000       0.250000000000000     
  0.125000000000000       0.375000000000000       0.750000000000000     
