 Al        
1.0
   3.29593411633554       0.000000000000000E+000  0.000000000000000E+000
   2.35035377809536        2.31063169220397       0.000000000000000E+000
   2.35035377809536       0.961835816575177        2.10092614790967     
           2
Direct
  0.000000000000000E+000  0.000000000000000E+000  0.000000000000000E+000
  0.500000000000000       0.500000000000000       0.500000000000000     
