 Al        
1.0
   2.03866552242818       0.000000000000000E+000  0.000000000000000E+000
  -1.01933269368934        1.76553617122771       0.000000000000000E+000
  3.356080229322766E-007  5.812901214750952E-007   4.44526304622311     
           2
Direct
  0.000000000000000E+000  0.000000000000000E+000  0.378711361061066     
  0.000000000000000E+000  0.000000000000000E+000  0.824317187102026     
