 Al        
1.0
   2.62331420760261       0.000000000000000E+000  0.000000000000000E+000
  1.980547125308333E-007   2.62331420760260       0.000000000000000E+000
  1.755311865731420E-007  1.755311733209066E-007   2.32498106069038     
           2
Direct
  0.250000000000000       0.250000000000000       0.750000000000000     
  0.750000000000000       0.750000000000000       0.250000000000000     
