 Al        
1.0
  0.923908851081270        2.25607343747809       0.000000000000000E+000
 -0.923908510423658        2.25607343747809       0.000000000000000E+000
  2.897628054411611E-007  2.897627835646788E-007   3.83802472879935     
           2
Direct
  0.500000000000000       0.500000000000000       0.000000000000000E+000
  0.500000000000000       0.500000000000000       0.500000000000000     
