 Al        
1.0
   1.70039082343855       0.000000000000000E+000  0.000000000000000E+000
 -0.850195355398869        1.47258168197632       0.000000000000000E+000
  4.824217152457923E-007  8.355788845788068E-007   6.38986936230196     
           2
Direct
  0.000000000000000E+000  0.000000000000000E+000  0.000000000000000E+000
  0.000000000000000E+000  0.000000000000000E+000  0.500000000000000     
