 Al        
1.0
   1.83562263949357       0.000000000000000E+000  0.000000000000000E+000
  1.385856536462065E-007   1.83562263949356       0.000000000000000E+000
  3.584991375033575E-007  3.584991104374266E-007   4.74846505194580     
           2
Direct
  0.500000000000000       0.500000000000000       0.250000000000000     
  0.500000000000000       0.500000000000000       0.750000000000000     
