 Al        
1.0
   1.88673786369703       0.000000000000000E+000  0.000000000000000E+000
  3.204905121424269E-007   4.24502554451551       0.000000000000000E+000
  1.508214287983581E-007  1.508214174116574E-007   1.99769039535507     
           2
Direct
  0.000000000000000E+000  0.500000000000000       0.685384304848343     
  0.500000000000000       0.000000000000000E+000  0.185384304848343     
