 Al        
1.0
   6.44579306361181       0.000000000000000E+000  0.000000000000000E+000
  1.910115579089386E-007   2.53002479605638       0.000000000000000E+000
  0.947439427949229       3.144191340107561E-008  0.981112776958800     
           2
Direct
  0.000000000000000E+000  0.700443618715603       0.500000000000000     
  0.500000000000000       0.899108028236860       0.000000000000000E+000
