 Al        
1.0
   3.57552014947947       0.000000000000000E+000  0.000000000000000E+000
  2.699442610805358E-007   3.57552014947946       0.000000000000000E+000
  9.448795386371709E-008  9.448794673007531E-008   1.25153089593563     
           2
Direct
  0.000000000000000E+000  0.000000000000000E+000  0.233755947029802     
  0.500000000000000       0.500000000000000       0.446061835584815     
