 Al        
1.0
 -0.930539106716880       0.930539874488438        4.61945173838952     
  0.930539804234687      -0.930539176970684        4.61945173838952     
  0.930539247224440       0.930539176970684       -4.61945173838952     
           2
Direct
  0.358543946163838       0.358543946163838       0.000000000000000E+000
  0.641456053836162       0.641456053836162       0.000000000000000E+000
