 Al        
1.0
 -0.837077669847672        1.26226414951804        3.78568068970673     
  0.837078241469553       -1.26226357789620        3.78568068970673     
  0.837077860444212        1.26226357789620       -3.78568068970673     
           2
Direct
  0.868429751864879       0.618429751864879       0.250000000000000     
  0.631570248135120       0.881570248135121       0.750000000000000     
