 Al        
1.0
   1.70304901985489       0.000000000000000E+000  0.000000000000000E+000
  1.285766238278888E-007   1.70304901985488       0.000000000000000E+000
  4.164862117132460E-007  4.164861802694129E-007   5.51652713786272     
           2
Direct
  0.500000000000000       0.500000000000000       0.914584051696416     
  0.500000000000000       0.500000000000000       0.414584051696416     
