 Al        
1.0
   1.90530574914625       0.000000000000000E+000  0.000000000000000E+000
  2.273930574715743E-007   3.01191236882338       0.000000000000000E+000
  2.104979632194917E-007  2.104979473273382E-007   2.78813006026874     
           2
Direct
  0.250000000000000       0.750000000000000       0.352946460712910     
  0.750000000000000       0.250000000000000       0.647053539287090     
