 Al        
1.0
   1.56300108975024       0.000000000000000E+000  0.000000000000000E+000
 -0.781500493105344        1.35359867975576       0.000000000000000E+000
  5.709600801587390E-007  9.889318242546226E-007   7.56259556318888     
           2
Direct
  0.000000000000000E+000  0.000000000000000E+000  0.705746039277134     
  0.000000000000000E+000  0.000000000000000E+000  0.294253960722866     
