 Al        
1.0
   2.78523091352634       0.000000000000000E+000  0.000000000000000E+000
  2.102790837299547E-007   2.78523091352633       0.000000000000000E+000
  1.557157285995124E-007  1.557157168433024E-007   2.06251736180575     
           2
Direct
  0.000000000000000E+000  0.500000000000000       0.500000000000000     
  0.500000000000000       0.000000000000000E+000  0.500000000000000     
