 Al        
1.0
   3.87413012241383       0.000000000000000E+000  0.000000000000000E+000
  2.924886868214399E-007   3.87413012241382       0.000000000000000E+000
  8.048343624975664E-008  8.048343017342648E-008   1.06603543582834     
           2
Direct
  0.000000000000000E+000  0.000000000000000E+000  0.000000000000000E+000
  0.500000000000000       0.500000000000000       0.500000000000000     
