 Al        
1.0
   3.77838608201717       0.000000000000000E+000  0.000000000000000E+000
  2.852602128771649E-007   3.77838608201716       0.000000000000000E+000
  8.461400724140173E-008  8.461400085322214E-008   1.12074650747834     
           2
Direct
  0.000000000000000E+000  0.500000000000000       0.000000000000000E+000
  0.500000000000000       0.000000000000000E+000  0.500000000000000     
