 Al        
1.0
   4.18891512881010       0.000000000000000E+000  0.000000000000000E+000
  1.301819501520216E-007   1.72431221172809       0.000000000000000E+000
  0.594211456340917       1.282897840703966E-007   2.21514714548771     
           2
Direct
  0.000000000000000E+000  0.497029012650002       0.000000000000000E+000
  0.500000000000000       0.869276633899897       0.000000000000000E+000
