 Al        
1.0
   2.79426714811636       0.000000000000000E+000  0.000000000000000E+000
  1.240603044829742E-007   1.64322855634665       0.000000000000000E+000
  2.630807255029031E-007  2.630807056408616E-007   3.48460986431071     
           2
Direct
  0.000000000000000E+000  0.500000000000000       0.000000000000000E+000
  0.500000000000000       0.000000000000000E+000  0.500000000000000     
