 Al        
1.0
   2.70797960208814       0.000000000000000E+000  0.000000000000000E+000
  2.044467719789716E-007   2.70797960208813       0.000000000000000E+000
  1.647267443623587E-007  1.647267319258360E-007   2.18187188447042     
           2
Direct
  0.000000000000000E+000  0.500000000000000       0.643320164495246     
  0.500000000000000       0.000000000000000E+000  0.143320164495246     
