 Al        
1.0
   1.93129862882139       0.000000000000000E+000  0.000000000000000E+000
  1.458089898777216E-007   1.93129862882138       0.000000000000000E+000
  3.238590607405779E-007  3.238590362898999E-007   4.28964332353024     
           2
Direct
  0.500000000000000       0.500000000000000       0.771461794420262     
  0.500000000000000       0.500000000000000       0.228538205579738     
