 Al        
1.0
  2.405070358758117E-007   1.94215901370426        1.24345335962508     
   3.31265201173052       9.387810975113992E-008   1.24345335962508     
   3.31265206448133        1.94215891982615       0.000000000000000E+000
           2
Direct
  0.633116832848139       0.633116832848139       0.366883167151861     
  0.883116832848139       0.883116832848139       0.616883167151861     
