 Al        
1.0
  3.587830767477146E-007   2.60294140679302        2.14928469674272     
   1.42998602583279       1.622664678859331E-007   2.14928469674272     
   1.42998606008291        2.60294124452655       0.000000000000000E+000
           2
Direct
  0.478420663935018       0.478420663935018       0.521579336064982     
  0.728420663935018       0.728420663935018       0.771579336064982     
