 Al        
1.0
   1.10598110775480        2.01577997101715       0.000000000000000E+000
  -1.10598080338050        2.01577997101715       0.000000000000000E+000
  2.709156794918244E-007  2.709156590382604E-007   3.58838697646526     
           2
Direct
  0.000000000000000E+000  0.000000000000000E+000  0.786516670069617     
  0.500000000000000       0.500000000000000       0.323690345750040     
