 Al        
1.0
   1.91606885469974       0.000000000000000E+000  0.000000000000000E+000
  3.554278670171516E-007   4.70778484091272       0.000000000000000E+000
   1.58952159114890       5.981211653488622E-008   1.77374969309645     
           2
Direct
  0.229290503770901       0.000000000000000E+000  0.388022695193965     
  0.360498210714360       0.500000000000000       0.271136570743568     
