 Al        
1.0
   2.51984224456339       0.000000000000000E+000  0.000000000000000E+000
  1.902427966591690E-007   2.51984224456339       0.000000000000000E+000
  1.902427966591690E-007  1.902427822962380E-007   2.51984224456338     
           2
Direct
  0.000000000000000E+000  0.000000000000000E+000  0.000000000000000E+000
  0.500000000000000       0.500000000000000       0.500000000000000     
