 Al        
1.0
   2.95319028015294       0.000000000000000E+000  0.000000000000000E+000
  -1.47659504226080        2.55753786129564       0.000000000000000E+000
  1.599342258710388E-007  2.770141928441377E-007   2.11839305234456     
           2
Direct
  0.333299994468689       0.666700005531311       0.000000000000000E+000
  0.666700005531311       0.333299994468689       0.500000000000000     
