 Al        
1.0
 -0.739090659752918        2.82263580254484        1.91737618534495     
  0.739090949268668       -2.82263551302911        1.91737618534495     
  0.739091085959045        2.82263551302911       -1.91737618534495     
           2
Direct
  0.250000000000000       0.250000000000000       0.000000000000000E+000
  0.750000000000000       0.750000000000000       0.000000000000000E+000
