 Al        
1.0
  -1.20437045132072        1.20437095864228        2.75765365560500     
   1.20437086771484       -1.20437054224820        2.75765365560500     
   1.20437063317565        1.20437054224820       -2.75765365560500     
           2
Direct
  0.375000000000000       0.125000000000000       0.250000000000000     
  0.625000000000000       0.875000000000000       0.750000000000000     
