 Al        
1.0
   2.51984220046976       0.000000000000000E+000  0.000000000000000E+000
  1.902427933301922E-007   2.51984220046975       0.000000000000000E+000
  1.902427933301922E-007  1.902427789672615E-007   2.51984220046974     
           2
Direct
  0.250000000000000       0.250000000000000       0.250000000000000     
  0.750000000000000       0.750000000000000       0.750000000000000     
