 Al        
1.0
   2.51984218775513       0.000000000000000E+000  0.000000000000000E+000
  1.902427923702647E-007   2.51984218775513       0.000000000000000E+000
  1.902427923702647E-007  1.902427780073340E-007   2.51984218775512     
           2
Direct
  0.250000000000000       0.250000000000000       0.250000000000000     
  0.750000000000000       0.750000000000000       0.750000000000000     
