 Al        
1.0
   2.20638810717972       0.000000000000000E+000  0.000000000000000E+000
  -1.10319398050980        1.91078819361829       0.000000000000000E+000
  2.865236361195461E-007  4.962734734116479E-007   3.79512063026191     
           2
Direct
  0.000000000000000E+000  0.000000000000000E+000  0.250000000000000     
  0.000000000000000E+000  0.000000000000000E+000  0.750000000000000     
