 Al        
1.0
   3.38715180122069       0.000000000000000E+000  0.000000000000000E+000
  -1.69357578842099        2.93335957110389       0.000000000000000E+000
  1.215779903850938E-007  2.105792471293521E-007   1.61034930920583     
           2
Direct
  0.000000000000000E+000  0.000000000000000E+000  0.302564004770452     
  0.333299994468689       0.666700005531311       0.480609011301661     
