 Al        
1.0
   2.72600520501021       0.000000000000000E+000  0.000000000000000E+000
  9.651383563454729E-008   1.27836451359830       0.000000000000000E+000
  3.466358983526549E-007  3.466358721823737E-007   4.59133168503649     
           2
Direct
  0.000000000000000E+000  0.500000000000000       0.000000000000000E+000
  0.000000000000000E+000  0.500000000000000       0.500000000000000     
