 Al        
1.0
   2.09023780799183       0.000000000000000E+000  0.000000000000000E+000
  1.578085640611195E-007   2.09023780799183       0.000000000000000E+000
  2.764798829034269E-007  2.764798620297773E-007   3.66208708527422     
           2
Direct
  0.500000000000000       0.500000000000000       0.251199329435798     
  0.500000000000000       0.500000000000000       0.748800670564202     
