 Al        
1.0
   3.33401144245708       0.000000000000000E+000  0.000000000000000E+000
  -1.66700561079930        2.88733866943218       0.000000000000000E+000
  1.254845063428107E-007  2.173455309498788E-007   1.66209268194941     
           2
Direct
  0.333299994468689       0.666700005531311       0.135300016263733     
  0.666700005531311       0.333299994468689       0.635300016263733     
