 Al        
1.0
  3.019916131993246E-007   2.00000025036047        2.00000009936467     
   2.00000025036049       1.509957951997965E-007   2.00000009936467     
   2.00000025036049        2.00000009936468       0.000000000000000E+000
           2
Direct
  0.000000000000000E+000  0.000000000000000E+000  0.000000000000000E+000
  0.500000000000000       0.500000000000000       0.500000000000000     
