 Al        
1.0
   2.95564942766384       0.000000000000000E+000  0.000000000000000E+000
  2.231453235915841E-007   2.95564942766384       0.000000000000000E+000
  1.382767164174330E-007  1.382767059778317E-007   1.83153064182714     
           2
Direct
  0.000000000000000E+000  0.000000000000000E+000  0.500000000000000     
  0.500000000000000       0.500000000000000       0.000000000000000E+000
