 Al        
1.0
   1.77566272065067       0.000000000000000E+000  0.000000000000000E+000
  2.090036355318472E-007   2.76833708991365       0.000000000000000E+000
  2.457397715647422E-007  2.457397530119062E-007   3.25492196515367     
           2
Direct
  0.500000000000000       0.000000000000000E+000  0.573887741090942     
  0.500000000000000       0.500000000000000       7.388774109094198E-002
