 Al        
1.0
  -1.88780264150587        1.88780295350835        1.12239774371334     
   1.88780281098321       -1.88780278403102        1.12239774371334     
   1.88780292655617        1.88780278403102       -1.12239774371334     
           2
Direct
  0.500000000000000       0.500000000000000       0.000000000000000E+000
  0.250000000000000       0.750000000000000       0.500000000000000     
