 Al        
1.0
   1.10779361050443       0.000000000000000E+000  0.000000000000000E+000
  3.275714911816275E-007   4.33881595565950       0.000000000000000E+000
   1.38028581329875       1.678584924115330E-007   3.32881732995232     
           2
Direct
  0.000000000000000E+000  0.967756221657281       0.500000000000000     
  0.000000000000000E+000  0.406163631716700       0.500000000000000     
