 Al        
1.0
   2.38889564374836       0.000000000000000E+000  0.000000000000000E+000
  1.803566033445630E-007   2.38889564374835       0.000000000000000E+000
  2.116706014053571E-007  2.116705854246719E-007   2.80366212398008     
           2
Direct
  0.250000000000000       0.250000000000000       0.750000000000000     
  0.750000000000000       0.750000000000000       0.250000000000000     
