 Al        
1.0
  4.188487206123827E-007   2.29813086679833        3.24968889557791     
   1.07120764854306       2.453446672805717E-007   3.24968889557791     
   1.07120757670241        2.29813062145366       0.000000000000000E+000
           2
Direct
  0.861440304304670       0.861440304304670       0.138559695695330     
  0.138559695695330       0.138559695695330       0.861440304304670     
