 Al        
1.0
   1.72072359116123       0.000000000000000E+000  0.000000000000000E+000
  1.299110168369454E-007   1.72072359116123       0.000000000000000E+000
  4.079742149551969E-007  4.079741841540018E-007   5.40378232232604     
           2
Direct
  0.250000000000000       0.250000000000000       0.140486525810023     
  0.750000000000000       0.750000000000000       0.859513474189977     
