 Al        
1.0
   1.31331879944709        1.24133617088032       0.000000000000000E+000
  -1.31331861201054        1.24133617088032       0.000000000000000E+000
  3.704805267237736E-007  3.704804987532731E-007   4.90716336397835     
           2
Direct
  0.250000000000000       0.250000000000000       0.256609566422092     
  0.750000000000000       0.750000000000000       0.743390433577908     
