 Al        
1.0
  -1.89340106990983        1.03413413383727        2.04286930699820     
   1.89340137837451       -1.03413382537261        2.04286930699820     
   1.89340122605972        1.03413382537261       -2.04286930699820     
           2
Direct
  0.000000000000000E+000  0.000000000000000E+000  0.000000000000000E+000
  0.500000000000000       0.500000000000000       0.000000000000000E+000
