 Al        
1.0
   2.05849034386541        1.69864909649370       0.000000000000000E+000
  -2.05849008737653        1.69864909649370       0.000000000000000E+000
  1.727318542690791E-007  1.727318412281874E-007   2.28790278009200     
           2
Direct
  0.500000000000000       0.000000000000000E+000  0.343388611538350     
  0.000000000000000E+000  0.500000000000000       0.843388611538350     
