 Al        
1.0
   3.83408592424431       0.000000000000000E+000  0.000000000000000E+000
  -1.91704283512943        3.32041588400719       0.000000000000000E+000
  9.488565942895290E-008  1.643467757826238E-007   1.25679866586846     
           2
Direct
  0.333299994468689       0.666700005531311       0.833574973910055     
  0.666700005531311       0.333299994468689       0.603091415605865     
