 Al        
1.0
   2.50593708973814       0.663876168608958       0.000000000000000E+000
  -2.50593698949562       0.663876168608958       0.000000000000000E+000
  3.630510479316564E-007  3.630510205220659E-007   4.80875693364709     
           2
Direct
  0.250000000000000       0.250000000000000       0.750000000000000     
  0.750000000000000       0.750000000000000       0.250000000000000     
