 Al        
1.0
   1.95439144852471       0.000000000000000E+000  0.000000000000000E+000
  1.475524492599841E-007   1.95439144852470       0.000000000000000E+000
  3.162509329726775E-007  3.162509090963971E-007   4.18887061576808     
           2
Direct
  0.000000000000000E+000  0.000000000000000E+000  0.608880921618489     
  0.500000000000000       0.500000000000000       0.949769577351590     
