 Al        
1.0
   3.85712780832452       0.000000000000000E+000  0.000000000000000E+000
   1.97594587431433        4.35675335434083       0.000000000000000E+000
  0.661280186890620        2.39931922060200       0.952122963228093     
           2
Direct
  0.000000000000000E+000  0.000000000000000E+000  0.000000000000000E+000
  0.500000000000000       0.500000000000000       0.000000000000000E+000
