 Al        
1.0
   2.46783877852624       0.000000000000000E+000  0.000000000000000E+000
  1.863166442041006E-007   2.46783877852624       0.000000000000000E+000
  1.983450374785179E-007  1.983450225038848E-007   2.62715967813117     
           2
Direct
  0.000000000000000E+000  0.500000000000000       0.573215848171778     
  0.500000000000000       0.000000000000000E+000  7.321584817177840E-002
