 Al        
1.0
   4.02600000000000       0.000000000000000E+000  0.000000000000000E+000
  0.000000000000000E+000   4.02600000000000       0.000000000000000E+000
  0.000000000000000E+000  0.000000000000000E+000   4.02600000000000     
           2
Direct
  0.854961774159105       0.991053883563530       0.980504180464359     
  0.922750780560920       0.340065506708606       0.537616767313994     
