 Al        
1.0
   4.02600000000000       0.000000000000000E+000  0.000000000000000E+000
  0.000000000000000E+000   4.02600000000000       0.000000000000000E+000
  0.000000000000000E+000  0.000000000000000E+000   4.02600000000000     
           2
Direct
  0.117640757933009       0.256349757215813       0.113227236841020     
  0.991814232573009       0.552756089709823       0.975058480110004     
