 Al        
1.0
   4.02600000000000       0.000000000000000E+000  0.000000000000000E+000
  0.000000000000000E+000   4.02600000000000       0.000000000000000E+000
  0.000000000000000E+000  0.000000000000000E+000   4.02600000000000     
           2
Direct
  0.310026771087327       0.228516608208376       4.061003236652006E-002
  7.003696772881875E-002  0.877690118087296       0.385169151117735     
