 Al        
1.0
   4.02600000000000       0.000000000000000E+000  0.000000000000000E+000
  0.000000000000000E+000   4.02600000000000       0.000000000000000E+000
  0.000000000000000E+000  0.000000000000000E+000   4.02600000000000     
           2
Direct
  0.379767422694820       0.164194601102052       0.836197071278816     
  0.171652993927944       0.485474191729587       0.418352030944042     
