 Al        
1.0
   4.02600000000000       0.000000000000000E+000  0.000000000000000E+000
  0.000000000000000E+000   4.02600000000000       0.000000000000000E+000
  0.000000000000000E+000  0.000000000000000E+000   4.02600000000000     
           2
Direct
  0.737969006284774       0.669149371272742       0.196876902475271     
  0.922837786581930       8.587197135161478E-002  0.598728459278083     
