 Al        
1.0
   4.02600000000000       0.000000000000000E+000  0.000000000000000E+000
  0.000000000000000E+000   4.02600000000000       0.000000000000000E+000
  0.000000000000000E+000  0.000000000000000E+000   4.02600000000000     
           2
Direct
  0.990081719661570       0.334457478220055       0.933808077300751     
  0.635360604154714       0.999807433683252       9.048239779239679E-002
