 Al        
1.0
   4.02600000000000       0.000000000000000E+000  0.000000000000000E+000
  0.000000000000000E+000   4.02600000000000       0.000000000000000E+000
  0.000000000000000E+000  0.000000000000000E+000   4.02600000000000     
           2
Direct
  0.625296615599752       0.474357255418023       0.200201829437704     
  0.229577391647770       0.289575077879187       0.700060541045453     
