 Al        
1.0
   4.02600000000000       0.000000000000000E+000  0.000000000000000E+000
  0.000000000000000E+000   4.02600000000000       0.000000000000000E+000
  0.000000000000000E+000  0.000000000000000E+000   4.02600000000000     
           2
Direct
  0.221217940469982       0.188538926199920       0.532274771595073     
  0.265534389098371       0.720494817123775       0.921458849368616     
