 Al        
1.0
   4.02600000000000       0.000000000000000E+000  0.000000000000000E+000
  0.000000000000000E+000   4.02600000000000       0.000000000000000E+000
  0.000000000000000E+000  0.000000000000000E+000   4.02600000000000     
           2
Direct
  8.429359279803700E-002  0.679440961104109       0.337923817207815     
  0.853951624401791       9.273410070799205E-002  0.685541967987578     
