 Al        
1.0
   4.02600000000000       0.000000000000000E+000  0.000000000000000E+000
  0.000000000000000E+000   4.02600000000000       0.000000000000000E+000
  0.000000000000000E+000  0.000000000000000E+000   4.02600000000000     
           2
Direct
  0.605051125599697       0.489220155674830       0.990786456603950     
  0.601814833541521       0.692593395183997       0.426470059086547     
