 Al        
1.0
   4.02600000000000       0.000000000000000E+000  0.000000000000000E+000
  0.000000000000000E+000   4.02600000000000       0.000000000000000E+000
  0.000000000000000E+000  0.000000000000000E+000   4.02600000000000     
           2
Direct
  0.702512593340859       0.806761971476844       0.613072173256023     
  0.183850958769829       0.336388210110830       0.625487614966205     
