 Al        
1.0
   4.02600000000000       0.000000000000000E+000  0.000000000000000E+000
  0.000000000000000E+000   4.02600000000000       0.000000000000000E+000
  0.000000000000000E+000  0.000000000000000E+000   4.02600000000000     
           2
Direct
  0.573378501337567       0.981408758750064       0.143814763158678     
  0.326203977096517       0.233051017769303       0.764752908146006     
