 Al        
1.0
   4.02600000000000       0.000000000000000E+000  0.000000000000000E+000
  0.000000000000000E+000   4.02600000000000       0.000000000000000E+000
  0.000000000000000E+000  0.000000000000000E+000   4.02600000000000     
           2
Direct
  0.967237372517200       0.523780144528165       0.379003360502088     
  0.320991820322491       0.535547653921669       0.722942725499220     
