 Al        
1.0
   4.02600000000000       0.000000000000000E+000  0.000000000000000E+000
  0.000000000000000E+000   4.02600000000000       0.000000000000000E+000
  0.000000000000000E+000  0.000000000000000E+000   4.02600000000000     
           2
Direct
  0.187417501551326       0.560149108345002       0.761788439821458     
  0.144000523369780       0.977075392404294       0.312686951634655     
