 Al        
1.0
   4.02600000000000       0.000000000000000E+000  0.000000000000000E+000
  0.000000000000000E+000   4.02600000000000       0.000000000000000E+000
  0.000000000000000E+000  0.000000000000000E+000   4.02600000000000     
           2
Direct
  0.206005640565641       0.192200786591073       0.712953038327864     
  0.342507616203812       0.778650682971489       0.749261729739254     
