 Al        
1.0
   4.02600000000000       0.000000000000000E+000  0.000000000000000E+000
  0.000000000000000E+000   4.02600000000000       0.000000000000000E+000
  0.000000000000000E+000  0.000000000000000E+000   4.02600000000000     
           2
Direct
  0.894500310082232       0.823763154456329       0.395057034948769     
  0.216301185724139       4.800684008774403E-003  0.400173143024889     
