 Al        
1.0
   4.02600000000000       0.000000000000000E+000  0.000000000000000E+000
  0.000000000000000E+000   4.02600000000000       0.000000000000000E+000
  0.000000000000000E+000  0.000000000000000E+000   4.02600000000000     
           2
Direct
  9.686137886402048E-002  0.428328651193498       3.689937486147820E-002
  0.155217450667863       0.175325991540546       0.642446415781948     
