 Al        
1.0
   4.02600000000000       0.000000000000000E+000  0.000000000000000E+000
  0.000000000000000E+000   4.02600000000000       0.000000000000000E+000
  0.000000000000000E+000  0.000000000000000E+000   4.02600000000000     
           2
Direct
  0.308897887475937       0.238226027343986       0.526659051778734     
  0.105530077111933       0.762705742768005       0.968225880199669     
