 Al        
1.0
   4.02600000000000       0.000000000000000E+000  0.000000000000000E+000
  0.000000000000000E+000   4.02600000000000       0.000000000000000E+000
  0.000000000000000E+000  0.000000000000000E+000   4.02600000000000     
           2
Direct
  0.522712690956228       7.235059754448034E-002  8.604370211889702E-002
  1.259041161750673E-002  0.472869523425543       0.249054892533303     
