 Al        
1.0
   4.02600000000000       0.000000000000000E+000  0.000000000000000E+000
  0.000000000000000E+000   4.02600000000000       0.000000000000000E+000
  0.000000000000000E+000  0.000000000000000E+000   4.02600000000000     
           2
Direct
  0.315604381182404       0.691074268771945       0.443099784973767     
  0.758727261094290       3.315147888747769E-002  0.637889765771398     
