 Al        
1.0
   4.02600000000000       0.000000000000000E+000  0.000000000000000E+000
  0.000000000000000E+000   4.02600000000000       0.000000000000000E+000
  0.000000000000000E+000  0.000000000000000E+000   4.02600000000000     
           2
Direct
  6.745393422133480E-002  0.175959144698701       0.560932212359847     
  0.661294548870080       2.269575555303093E-002  0.667459750424175     
