 Al        
1.0
   4.02600000000000       0.000000000000000E+000  0.000000000000000E+000
  0.000000000000000E+000   4.02600000000000       0.000000000000000E+000
  0.000000000000000E+000  0.000000000000000E+000   4.02600000000000     
           2
Direct
  0.733472076871024       0.541431268221538       0.944008898102097     
  0.607842545335467       0.861961504103022       0.173206445166165     
