 Al        
1.0
   4.02600000000000       0.000000000000000E+000  0.000000000000000E+000
  0.000000000000000E+000   4.02600000000000       0.000000000000000E+000
  0.000000000000000E+000  0.000000000000000E+000   4.02600000000000     
           2
Direct
  0.678231035661714       0.201408063117268       0.755009438924398     
  0.489200137360957       0.628264736105921       6.765847455289682E-002
