 Al        
1.0
   4.02600000000000       0.000000000000000E+000  0.000000000000000E+000
  0.000000000000000E+000   4.02600000000000       0.000000000000000E+000
  0.000000000000000E+000  0.000000000000000E+000   4.02600000000000     
           2
Direct
  5.311073945575050E-002  0.740732113813156       0.601510829352037     
  0.240441267116697       0.126552581673939       3.840970912241615E-002
