 Al        
1.0
   4.02600000000000       0.000000000000000E+000  0.000000000000000E+000
  0.000000000000000E+000   4.02600000000000       0.000000000000000E+000
  0.000000000000000E+000  0.000000000000000E+000   4.02600000000000     
           2
Direct
  0.576981374548475       0.572492392110569       0.269698691519158     
  0.249126160599162       0.136935362890132       2.559944064167903E-002
