 Al        
1.0
   4.02600000000000       0.000000000000000E+000  0.000000000000000E+000
  0.000000000000000E+000   4.02600000000000       0.000000000000000E+000
  0.000000000000000E+000  0.000000000000000E+000   4.02600000000000     
           2
Direct
  0.570547371868288       0.334643216079414       0.296517011804480     
  1.008802459457984E-002  0.390878065128175       0.317777372436167     
