 Al        
1.0
   4.02600000000000       0.000000000000000E+000  0.000000000000000E+000
  0.000000000000000E+000   4.02600000000000       0.000000000000000E+000
  0.000000000000000E+000  0.000000000000000E+000   4.02600000000000     
           2
Direct
  5.141713440905148E-002  8.411447850509095E-002  6.788166368843108E-002
  0.537506947148632       0.389000786033024       0.220930573893291     
