 Al        
1.0
   4.02600000000000       0.000000000000000E+000  0.000000000000000E+000
  0.000000000000000E+000   4.02600000000000       0.000000000000000E+000
  0.000000000000000E+000  0.000000000000000E+000   4.02600000000000     
           2
Direct
  0.787275462373351       0.677356743987333       1.152105581913595E-002
  0.172260019295896       0.587695620932675       0.731867124423712     
