 Al        
1.0
   4.02600000000000       0.000000000000000E+000  0.000000000000000E+000
  0.000000000000000E+000   4.02600000000000       0.000000000000000E+000
  0.000000000000000E+000  0.000000000000000E+000   4.02600000000000     
           2
Direct
  0.952691399948096       0.940489116563262       0.341438331651621     
  0.496724271784332       0.342581021655065       0.960185431696362     
