 Al        
1.0
   4.02600000000000       0.000000000000000E+000  0.000000000000000E+000
  0.000000000000000E+000   4.02600000000000       0.000000000000000E+000
  0.000000000000000E+000  0.000000000000000E+000   4.02600000000000     
           2
Direct
  0.727011254893594       0.118614234068528       6.901921139407562E-002
  0.399110794497847       0.304784347259751       0.840658822774885     
