 Al        
1.0
   4.02600000000000       0.000000000000000E+000  0.000000000000000E+000
  0.000000000000000E+000   4.02600000000000       0.000000000000000E+000
  0.000000000000000E+000  0.000000000000000E+000   4.02600000000000     
           2
Direct
  0.803766481261769       0.970450053684530       0.511447383311123     
  0.133481019803270       0.634002220765774       1.930058078865953E-002
