 Al        
1.0
   4.02600000000000       0.000000000000000E+000  0.000000000000000E+000
  0.000000000000000E+000   4.02600000000000       0.000000000000000E+000
  0.000000000000000E+000  0.000000000000000E+000   4.02600000000000     
           2
Direct
  0.675819514526360       0.824167811337048       0.516014099987781     
  0.967709322578874       0.374304340135244       0.970605631592439     
