 Al        
1.0
   4.02600000000000       0.000000000000000E+000  0.000000000000000E+000
  0.000000000000000E+000   4.02600000000000       0.000000000000000E+000
  0.000000000000000E+000  0.000000000000000E+000   4.02600000000000     
           2
Direct
  0.863159925848520       0.622525047936768       0.521216332122398     
  0.546015533344503       0.176167512300535       0.403335383759581     
