 Al        
1.0
   4.02600000000000       0.000000000000000E+000  0.000000000000000E+000
  0.000000000000000E+000   4.02600000000000       0.000000000000000E+000
  0.000000000000000E+000  0.000000000000000E+000   4.02600000000000     
           2
Direct
  0.535841953263881       0.108513767469521       0.395865092356005     
  0.687069871649582       0.593545773742436       0.630743662646603     
