 Al        
1.0
   4.02600000000000       0.000000000000000E+000  0.000000000000000E+000
  0.000000000000000E+000   4.02600000000000       0.000000000000000E+000
  0.000000000000000E+000  0.000000000000000E+000   4.02600000000000     
           2
Direct
  0.136164528585032       0.982262770874580       0.657151185841229     
  0.821080076411275       0.822419783522225       0.985613922950429     
