 Al        
1.0
   4.02600000000000       0.000000000000000E+000  0.000000000000000E+000
  0.000000000000000E+000   4.02600000000000       0.000000000000000E+000
  0.000000000000000E+000  0.000000000000000E+000   4.02600000000000     
           2
Direct
  0.806671615954062       0.123235060123252       0.286993509342171     
  0.974357895003826       0.702755529775385       0.877510437550202     
