 Al        
1.0
   4.02600000000000       0.000000000000000E+000  0.000000000000000E+000
  0.000000000000000E+000   4.02600000000000       0.000000000000000E+000
  0.000000000000000E+000  0.000000000000000E+000   4.02600000000000     
           2
Direct
  0.947777691092854       0.452223279717833       0.295065355990340     
  0.473557104008436       2.552968830336975E-002  0.552465464435314     
