 Al        
1.0
   4.02600000000000       0.000000000000000E+000  0.000000000000000E+000
  0.000000000000000E+000   4.02600000000000       0.000000000000000E+000
  0.000000000000000E+000  0.000000000000000E+000   4.02600000000000     
           2
Direct
  0.792761831257843       0.389804398703097       6.925180176571144E-002
  0.368655001900938       0.646600853167972       0.982756455212037     
