 Al        
1.0
   4.02600000000000       0.000000000000000E+000  0.000000000000000E+000
  0.000000000000000E+000   4.02600000000000       0.000000000000000E+000
  0.000000000000000E+000  0.000000000000000E+000   4.02600000000000     
           2
Direct
  0.193501636128704       0.370138303591755       0.436662081683183     
  0.620404171633698       0.845508982366072       8.505012617877701E-002
