 Al        
1.0
   4.02600000000000       0.000000000000000E+000  0.000000000000000E+000
  0.000000000000000E+000   4.02600000000000       0.000000000000000E+000
  0.000000000000000E+000  0.000000000000000E+000   4.02600000000000     
           2
Direct
  0.915061503080755       0.243655559472144       0.663682952249911     
  0.799730485294521       0.730935455360222       0.290898599068811     
