 Al        
1.0
   4.02600000000000       0.000000000000000E+000  0.000000000000000E+000
  0.000000000000000E+000   4.02600000000000       0.000000000000000E+000
  0.000000000000000E+000  0.000000000000000E+000   4.02600000000000     
           2
Direct
  0.690904621839006       0.248014246151415       1.466654299137001E-003
  0.412592518641782       0.215452907752942       0.595347185435010     
