 Al        
1.0
   4.02600000000000       0.000000000000000E+000  0.000000000000000E+000
  0.000000000000000E+000   4.02600000000000       0.000000000000000E+000
  0.000000000000000E+000  0.000000000000000E+000   4.02600000000000     
           2
Direct
  0.228347887010113       0.992935460246871       0.313895966243537     
  0.483883658018945       6.635771023128419E-002  0.756580819519873     
