 Al        
1.0
   4.02600000000000       0.000000000000000E+000  0.000000000000000E+000
  0.000000000000000E+000   4.02600000000000       0.000000000000000E+000
  0.000000000000000E+000  0.000000000000000E+000   4.02600000000000     
           2
Direct
  0.594578725071246       9.771190784196916E-002  0.768289755706036     
  0.232362971990766       0.778421350366348       0.885611425748545     
