 Al        
1.0
   4.02600000000000       0.000000000000000E+000  0.000000000000000E+000
  0.000000000000000E+000   4.02600000000000       0.000000000000000E+000
  0.000000000000000E+000  0.000000000000000E+000   4.02600000000000     
           2
Direct
  0.465629699443710       0.141478193935773       0.873519932501572     
  0.909633541162520       0.711987097057933       0.762214417470722     
