 Al        
1.0
   4.02600000000000       0.000000000000000E+000  0.000000000000000E+000
  0.000000000000000E+000   4.02600000000000       0.000000000000000E+000
  0.000000000000000E+000  0.000000000000000E+000   4.02600000000000     
           2
Direct
  0.415910264175558       0.575128805770514       0.936377798017165     
  0.297516718175691       3.237755957622659E-002  2.712213122536477E-002
