 Al        
1.0
   4.02600000000000       0.000000000000000E+000  0.000000000000000E+000
  0.000000000000000E+000   4.02600000000000       0.000000000000000E+000
  0.000000000000000E+000  0.000000000000000E+000   4.02600000000000     
           2
Direct
  0.144086671642664       0.944939442127873       0.167773150028995     
  0.464540048728651       0.724382020334000       0.947049088077232     
