 Al        
1.0
   4.02600000000000       0.000000000000000E+000  0.000000000000000E+000
  0.000000000000000E+000   4.02600000000000       0.000000000000000E+000
  0.000000000000000E+000  0.000000000000000E+000   4.02600000000000     
           2
Direct
  0.569042422980351       0.332678600809388       0.790359950242840     
  0.486872757498260       0.148114240537262       0.186793370115308     
