 Al        
1.0
   4.02600000000000       0.000000000000000E+000  0.000000000000000E+000
  0.000000000000000E+000   4.02600000000000       0.000000000000000E+000
  0.000000000000000E+000  0.000000000000000E+000   4.02600000000000     
           2
Direct
  0.633233728271380       0.688247861573969       0.579623033417368     
  0.977431900371661       1.066621854278656E-002  0.311746510909149     
