 Al        
1.0
   4.02600000000000       0.000000000000000E+000  0.000000000000000E+000
  0.000000000000000E+000   4.02600000000000       0.000000000000000E+000
  0.000000000000000E+000  0.000000000000000E+000   4.02600000000000     
           2
Direct
  0.372017522166245       0.866819244194604       0.881547098947456     
  0.114429004363001       0.636961557502732       0.251989217670207     
