 Al        
1.0
   4.02600000000000       0.000000000000000E+000  0.000000000000000E+000
  0.000000000000000E+000   4.02600000000000       0.000000000000000E+000
  0.000000000000000E+000  0.000000000000000E+000   4.02600000000000     
           2
Direct
  0.827741272914226       0.419981715594625       0.370166514750641     
  0.730516797441023       0.461420243708752       0.917732917707085     
