 Al        
1.0
   4.02600000000000       0.000000000000000E+000  0.000000000000000E+000
  0.000000000000000E+000   4.02600000000000       0.000000000000000E+000
  0.000000000000000E+000  0.000000000000000E+000   4.02600000000000     
           2
Direct
  9.996950090742071E-003  0.446921207936621       0.645057614347848     
  0.149985500028714       0.999198336588151       0.504721268965539     
