 Al        
1.0
   4.02600000000000       0.000000000000000E+000  0.000000000000000E+000
  0.000000000000000E+000   4.02600000000000       0.000000000000000E+000
  0.000000000000000E+000  0.000000000000000E+000   4.02600000000000     
           2
Direct
  0.737648653192507       0.906029860029246       0.832652219466602     
  0.257799890783145       0.679203640544930       0.857489706429942     
