 Al        
1.0
   4.02600000000000       0.000000000000000E+000  0.000000000000000E+000
  0.000000000000000E+000   4.02600000000000       0.000000000000000E+000
  0.000000000000000E+000  0.000000000000000E+000   4.02600000000000     
           2
Direct
  0.989685916864918       0.600993399081955       0.564973268202844     
  0.509765038420458       0.438459660983211       0.628347928826497     
