 Al        
1.0
   4.02600000000000       0.000000000000000E+000  0.000000000000000E+000
  0.000000000000000E+000   4.02600000000000       0.000000000000000E+000
  0.000000000000000E+000  0.000000000000000E+000   4.02600000000000     
           2
Direct
  0.893317228617128       0.989472521052305       0.813746144607858     
  0.359668389694677       0.155631555350815       0.762514149683388     
