 Al        
1.0
   4.02600000000000       0.000000000000000E+000  0.000000000000000E+000
  0.000000000000000E+000   4.02600000000000       0.000000000000000E+000
  0.000000000000000E+000  0.000000000000000E+000   4.02600000000000     
           2
Direct
  0.945402731820582       0.139876468055648       0.383369698462273     
  3.232966118865696E-002  0.806855671844784       0.274646456979656     
