 Al        
1.0
   4.02600000000000       0.000000000000000E+000  0.000000000000000E+000
  0.000000000000000E+000   4.02600000000000       0.000000000000000E+000
  0.000000000000000E+000  0.000000000000000E+000   4.02600000000000     
           2
Direct
  0.733104929474143       0.329714069620564       0.894520089977516     
  0.685803428428848       0.392323688765760       0.251951099101381     
