 Al        
1.0
   4.02600000000000       0.000000000000000E+000  0.000000000000000E+000
  0.000000000000000E+000   4.02600000000000       0.000000000000000E+000
  0.000000000000000E+000  0.000000000000000E+000   4.02600000000000     
           2
Direct
  0.764849200384775       0.564309818654476       8.916057254124818E-002
  5.421973513843364E-003  0.130379851480148       0.913729420242364     
