 Al        
1.0
   4.02600000000000       0.000000000000000E+000  0.000000000000000E+000
  0.000000000000000E+000   4.02600000000000       0.000000000000000E+000
  0.000000000000000E+000  0.000000000000000E+000   4.02600000000000     
           2
Direct
  0.673594468857873       0.375277020921253       0.162577301179557     
  0.446539380101415       0.988081735552728       0.774658440540528     
