 Al        
1.0
   4.02600000000000       0.000000000000000E+000  0.000000000000000E+000
  0.000000000000000E+000   4.02600000000000       0.000000000000000E+000
  0.000000000000000E+000  0.000000000000000E+000   4.02600000000000     
           2
Direct
  0.878887805019254       0.117639150004521       0.564308171144776     
  0.317646872252218       0.179607419421258       0.662384839869434     
