 Al        
1.0
   4.02600000000000       0.000000000000000E+000  0.000000000000000E+000
  0.000000000000000E+000   4.02600000000000       0.000000000000000E+000
  0.000000000000000E+000  0.000000000000000E+000   4.02600000000000     
           2
Direct
  0.869640262294290       3.997522378242288E-002  0.835635426002093     
  0.111558188443280       0.110109718218132       8.567017842175662E-003
