 Al        
1.0
   4.02600000000000       0.000000000000000E+000  0.000000000000000E+000
  0.000000000000000E+000   4.02600000000000       0.000000000000000E+000
  0.000000000000000E+000  0.000000000000000E+000   4.02600000000000     
           2
Direct
  0.827718251550592       0.874102401220566       1.806116641275541E-002
  0.479529803972706       0.588767465690725       0.701945062105231     
