 Al        
1.0
   4.02600000000000       0.000000000000000E+000  0.000000000000000E+000
  0.000000000000000E+000   4.02600000000000       0.000000000000000E+000
  0.000000000000000E+000  0.000000000000000E+000   4.02600000000000     
           2
Direct
  0.765168305504742       0.256653602149130       0.961476615036609     
  0.358856645646884       0.242189021122672       0.639166901972696     
