 Al        
1.0
   4.02600000000000       0.000000000000000E+000  0.000000000000000E+000
  0.000000000000000E+000   4.02600000000000       0.000000000000000E+000
  0.000000000000000E+000  0.000000000000000E+000   4.02600000000000     
           2
Direct
  0.960854898985784       0.715196743510533       0.614532616099003     
  0.178225348773018       0.961796195596770       0.585317760124806     
