 Al        
1.0
   4.02600000000000       0.000000000000000E+000  0.000000000000000E+000
  0.000000000000000E+000   4.02600000000000       0.000000000000000E+000
  0.000000000000000E+000  0.000000000000000E+000   4.02600000000000     
           2
Direct
  0.668547676329757       0.673673105082573       0.852059733786189     
  0.237025895690173       5.111906972952220E-002  0.674656370815723     
