 Al        
1.0
   4.02600000000000       0.000000000000000E+000  0.000000000000000E+000
  0.000000000000000E+000   4.02600000000000       0.000000000000000E+000
  0.000000000000000E+000  0.000000000000000E+000   4.02600000000000     
           2
Direct
  0.164162583627654       0.822565383239674       0.538895541711766     
  0.972276861613397       0.525408201226823       0.518506331868952     
