 Al        
1.0
   4.02600000000000       0.000000000000000E+000  0.000000000000000E+000
  0.000000000000000E+000   4.02600000000000       0.000000000000000E+000
  0.000000000000000E+000  0.000000000000000E+000   4.02600000000000     
           2
Direct
  0.738125601662636       0.864649966124093       6.365966024392790E-002
  0.286907219973911       0.911460863647130       0.216051167046813     
