 Al        
1.0
   4.02600000000000       0.000000000000000E+000  0.000000000000000E+000
  0.000000000000000E+000   4.02600000000000       0.000000000000000E+000
  0.000000000000000E+000  0.000000000000000E+000   4.02600000000000     
           2
Direct
  0.723191430080341       0.747482079330819       0.461275234915499     
  0.209926204683132       0.676376351850101       0.241296882513088     
