 Al        
1.0
   4.02600000000000       0.000000000000000E+000  0.000000000000000E+000
  0.000000000000000E+000   4.02600000000000       0.000000000000000E+000
  0.000000000000000E+000  0.000000000000000E+000   4.02600000000000     
           2
Direct
  0.333270807437607       0.689748510079747       0.832554812900329     
  0.642457599569528       0.322598009566231       0.790978478376366     
