 Al        
1.0
   4.02600000000000       0.000000000000000E+000  0.000000000000000E+000
  0.000000000000000E+000   4.02600000000000       0.000000000000000E+000
  0.000000000000000E+000  0.000000000000000E+000   4.02600000000000     
           2
Direct
  0.556953670150162       0.551169603527251       0.282642090238899     
  0.671319871704181       0.574692459706616       0.751754077104429     
