 Al        
1.0
   4.02600000000000       0.000000000000000E+000  0.000000000000000E+000
  0.000000000000000E+000   4.02600000000000       0.000000000000000E+000
  0.000000000000000E+000  0.000000000000000E+000   4.02600000000000     
           2
Direct
  0.372123182113501       0.627337961608415       0.924608713757124     
  0.475361904318333       0.836308923590116       0.358272894030993     
