 Al        
1.0
   4.02600000000000       0.000000000000000E+000  0.000000000000000E+000
  0.000000000000000E+000   4.02600000000000       0.000000000000000E+000
  0.000000000000000E+000  0.000000000000000E+000   4.02600000000000     
           2
Direct
  0.254779176626461       0.589935920268554       0.556165704165624     
  0.396997451663381       0.982035910465311       3.186446647554613E-002
