 Al        
1.0
   4.02600000000000       0.000000000000000E+000  0.000000000000000E+000
  0.000000000000000E+000   4.02600000000000       0.000000000000000E+000
  0.000000000000000E+000  0.000000000000000E+000   4.02600000000000     
           2
Direct
  0.478270905862108       0.373819267272314       0.891804401205559     
  0.999228394094114       0.877430186877755       0.953145723798025     
