 Al        
1.0
   4.02600000000000       0.000000000000000E+000  0.000000000000000E+000
  0.000000000000000E+000   4.02600000000000       0.000000000000000E+000
  0.000000000000000E+000  0.000000000000000E+000   4.02600000000000     
           2
Direct
  0.117093787972336       0.173725098728497       0.266914907697479     
  0.176752492796612       0.714104583346698       5.013856397093167E-002
