 Al        
1.0
   4.02600000000000       0.000000000000000E+000  0.000000000000000E+000
  0.000000000000000E+000   4.02600000000000       0.000000000000000E+000
  0.000000000000000E+000  0.000000000000000E+000   4.02600000000000     
           2
Direct
  0.945724721246677       0.853431454646247       0.836334886070556     
  7.288480885103737E-002  0.559813868992113       8.717801627243450E-002
