 Al        
1.0
   4.02600000000000       0.000000000000000E+000  0.000000000000000E+000
  0.000000000000000E+000   4.02600000000000       0.000000000000000E+000
  0.000000000000000E+000  0.000000000000000E+000   4.02600000000000     
           2
Direct
  0.102529676032729       0.261501849269334       0.676575374560852     
  0.370196259332206       0.650871401337938       0.398205813880773     
