 Al        
1.0
   4.02600000000000       0.000000000000000E+000  0.000000000000000E+000
  0.000000000000000E+000   4.02600000000000       0.000000000000000E+000
  0.000000000000000E+000  0.000000000000000E+000   4.02600000000000     
           2
Direct
  0.843404741813149       0.640025526472445       0.790970354914887     
  0.471381121346444       0.692052341915875       0.131050120638339     
