 Al        
1.0
   4.02600000000000       0.000000000000000E+000  0.000000000000000E+000
  0.000000000000000E+000   4.02600000000000       0.000000000000000E+000
  0.000000000000000E+000  0.000000000000000E+000   4.02600000000000     
           2
Direct
  0.216208064638863       0.200670853283732       0.313369220884695     
  0.309500261353106       0.310751573375371       0.818578500570342     
