 Al        
1.0
   4.02600000000000       0.000000000000000E+000  0.000000000000000E+000
  0.000000000000000E+000   4.02600000000000       0.000000000000000E+000
  0.000000000000000E+000  0.000000000000000E+000   4.02600000000000     
           2
Direct
  0.291239464541596       0.261331711063718       0.943356041882774     
  0.714549785822969       0.255169665296292       0.681812586241433     
