 Al        
1.0
   4.02600000000000       0.000000000000000E+000  0.000000000000000E+000
  0.000000000000000E+000   4.02600000000000       0.000000000000000E+000
  0.000000000000000E+000  0.000000000000000E+000   4.02600000000000     
           2
Direct
  0.456170787464136       9.410988911955626E-003  0.514732676908502     
  0.378780938310725       0.495285943662423       8.494392559874492E-002
