 Al        
1.0
   4.02600000000000       0.000000000000000E+000  0.000000000000000E+000
  0.000000000000000E+000   4.02600000000000       0.000000000000000E+000
  0.000000000000000E+000  0.000000000000000E+000   4.02600000000000     
           2
Direct
  0.784943709019670       0.408130074241690       6.822347771329587E-002
  0.145021550509534       0.751407178989429       0.356699154395343     
