 Al        
1.0
   4.02600000000000       0.000000000000000E+000  0.000000000000000E+000
  0.000000000000000E+000   4.02600000000000       0.000000000000000E+000
  0.000000000000000E+000  0.000000000000000E+000   4.02600000000000     
           2
Direct
  9.773215665818792E-004  0.854226746414448       0.914705701055928     
  0.715293561946577       1.461129507141189E-002  0.308160383810118     
