 Al        
1.0
   4.02600000000000       0.000000000000000E+000  0.000000000000000E+000
  0.000000000000000E+000   4.02600000000000       0.000000000000000E+000
  0.000000000000000E+000  0.000000000000000E+000   4.02600000000000     
           2
Direct
  0.737139147546526       0.133218606618969       0.541131173724377     
  0.651485876355458       0.807858521895470       0.194752736740737     
