 Al        
1.0
   4.02600000000000       0.000000000000000E+000  0.000000000000000E+000
  0.000000000000000E+000   4.02600000000000       0.000000000000000E+000
  0.000000000000000E+000  0.000000000000000E+000   4.02600000000000     
           2
Direct
  0.328581115198039       0.623559144326730       0.396713482551577     
  0.303840102081377       0.326926335128367       0.882924192141999     
