 Al        
1.0
   4.02600000000000       0.000000000000000E+000  0.000000000000000E+000
  0.000000000000000E+000   4.02600000000000       0.000000000000000E+000
  0.000000000000000E+000  0.000000000000000E+000   4.02600000000000     
           2
Direct
  0.512007971071021       4.553891246710316E-002  0.475326965284902     
  0.885875291330459       0.797398875364522       0.847420886173272     
