 Al        
1.0
   4.02600000000000       0.000000000000000E+000  0.000000000000000E+000
  0.000000000000000E+000   4.02600000000000       0.000000000000000E+000
  0.000000000000000E+000  0.000000000000000E+000   4.02600000000000     
           2
Direct
  0.723672033060398       0.698336330409434       0.308941514352349     
  0.205006830592444       0.174456962304581       0.866829572096704     
