 Al        
1.0
   4.02600000000000       0.000000000000000E+000  0.000000000000000E+000
  0.000000000000000E+000   4.02600000000000       0.000000000000000E+000
  0.000000000000000E+000  0.000000000000000E+000   4.02600000000000     
           2
Direct
  0.431074263826623       0.434465679772934       0.784119883389299     
  0.858772358855068       0.565403530401782       0.241444956289055     
