 Al        
1.0
   4.02600000000000       0.000000000000000E+000  0.000000000000000E+000
  0.000000000000000E+000   4.02600000000000       0.000000000000000E+000
  0.000000000000000E+000  0.000000000000000E+000   4.02600000000000     
           2
Direct
  0.387415689383788       0.736121849422508       0.177036823727251     
  8.720859671604370E-002  0.282364046201549       0.211265590487781     
