 Al        
1.0
   4.02600000000000       0.000000000000000E+000  0.000000000000000E+000
  0.000000000000000E+000   4.02600000000000       0.000000000000000E+000
  0.000000000000000E+000  0.000000000000000E+000   4.02600000000000     
           2
Direct
  0.354102836967790       0.471732613675888       6.116153914422289E-003
  0.922586920866689       0.369753393078706       0.642014540997908     
