 Al        
1.0
   4.02600000000000       0.000000000000000E+000  0.000000000000000E+000
  0.000000000000000E+000   4.02600000000000       0.000000000000000E+000
  0.000000000000000E+000  0.000000000000000E+000   4.02600000000000     
           2
Direct
  0.762712593111474       0.407169219390201       0.877341677702050     
  0.817876539435006       0.387720997890589       0.401922158041681     
