 Al        
1.0
   4.02600000000000       0.000000000000000E+000  0.000000000000000E+000
  0.000000000000000E+000   4.02600000000000       0.000000000000000E+000
  0.000000000000000E+000  0.000000000000000E+000   4.02600000000000     
           2
Direct
  0.574175592886714       0.876637229469680       0.115042470292472     
  0.936702551143110       0.328194125041598       0.946027603658076     
