 Al        
1.0
   4.02600000000000       0.000000000000000E+000  0.000000000000000E+000
  0.000000000000000E+000   4.02600000000000       0.000000000000000E+000
  0.000000000000000E+000  0.000000000000000E+000   4.02600000000000     
           2
Direct
  0.439283858676965       0.602050584822100       2.728532409260628E-002
  3.233416553046738E-002  0.967677653419132       0.338951848824930     
