 Al        
1.0
   4.02600000000000       0.000000000000000E+000  0.000000000000000E+000
  0.000000000000000E+000   4.02600000000000       0.000000000000000E+000
  0.000000000000000E+000  0.000000000000000E+000   4.02600000000000     
           2
Direct
  0.527409075680081       0.951095874813919       0.399911922864854     
  0.620241209734464       7.788069249124198E-002  0.806904298060975     
