 Al        
1.0
   4.02600000000000       0.000000000000000E+000  0.000000000000000E+000
  0.000000000000000E+000   4.02600000000000       0.000000000000000E+000
  0.000000000000000E+000  0.000000000000000E+000   4.02600000000000     
           2
Direct
  0.814229115009993       0.307237058931565       0.615715199306509     
  0.515787039809812       0.179930792327093       0.940259290357137     
