 Al        
1.0
   4.02600000000000       0.000000000000000E+000  0.000000000000000E+000
  0.000000000000000E+000   4.02600000000000       0.000000000000000E+000
  0.000000000000000E+000  0.000000000000000E+000   4.02600000000000     
           2
Direct
  0.172852133257515       0.342803949554606       0.582807138813010     
  0.463630257830289       0.396206077969407       0.145292943972116     
