 Al        
1.0
   4.02600000000000       0.000000000000000E+000  0.000000000000000E+000
  0.000000000000000E+000   4.02600000000000       0.000000000000000E+000
  0.000000000000000E+000  0.000000000000000E+000   4.02600000000000     
           2
Direct
  9.193407037034425E-002  0.224427563639517       9.333172251153551E-002
  0.999605027011793       0.681069742371759       0.352958323900335     
