 Al        
1.0
   4.02600000000000       0.000000000000000E+000  0.000000000000000E+000
  0.000000000000000E+000   4.02600000000000       0.000000000000000E+000
  0.000000000000000E+000  0.000000000000000E+000   4.02600000000000     
           2
Direct
  0.245104638316619       0.880756297085565       0.498631497092394     
  0.803933245751226       0.559578498156820       0.568322632139279     
