 Al        
1.0
   4.02600000000000       0.000000000000000E+000  0.000000000000000E+000
  0.000000000000000E+000   4.02600000000000       0.000000000000000E+000
  0.000000000000000E+000  0.000000000000000E+000   4.02600000000000     
           2
Direct
  0.558303257197037       0.270489115729730       0.764079698336670     
  0.391744453598874       0.680341995707278       0.478168907875360     
