 Al        
1.0
   4.02600000000000       0.000000000000000E+000  0.000000000000000E+000
  0.000000000000000E+000   4.02600000000000       0.000000000000000E+000
  0.000000000000000E+000  0.000000000000000E+000   4.02600000000000     
           2
Direct
  0.215138329326528       0.408279839765180       0.437382584054730     
  0.984038414733140       0.157569400218035       0.966614310705202     
