 Al        
1.0
   4.02600000000000       0.000000000000000E+000  0.000000000000000E+000
  0.000000000000000E+000   4.02600000000000       0.000000000000000E+000
  0.000000000000000E+000  0.000000000000000E+000   4.02600000000000     
           2
Direct
  4.357307576747204E-002  0.884117935854020       2.867890402567886E-002
  0.118274052652202       0.986321099492390       0.490224799452865     
