 Al        
1.0
   4.02600000000000       0.000000000000000E+000  0.000000000000000E+000
  0.000000000000000E+000   4.02600000000000       0.000000000000000E+000
  0.000000000000000E+000  0.000000000000000E+000   4.02600000000000     
           2
Direct
  0.591319769277320       0.761999193006162       0.503401118232446     
  0.614075060559612       0.306284045816466       0.114029846942302     
